#Run with: ~/Downloads/Current_LAMMPS_Build/LAMMPS_Files/build3/lmp -in Argon_0_3c_Script.txt     


#Initialization

units           	metal
dimension       	3
atom_style      	sphere
pair_style      	lj/cut 3.816370964
#pair_style          lj/cut 6.0
boundary		    p p p
#use me for classical: (necessary for longer gr)
#comm_modify         mode single cutoff 13.0 vel yes #made the cutoff longer to accomodate a longer gr
#Use me for relativistic:
#(non modified cutoff) 

#System Definitions


#for 500 atoms, use 28.982 angstroms as box side to get the same density as Rahman. 
region          myreg block 0 28.982 0 28.982 0 28.982
create_box	    1 myreg
create_atoms	1 random 500 341341 myreg

#sampling the tracers alone for the diffusion calculation to avoid making 10GB files for little gain. 
#group           tracers id 100

#Simulation Settings


pair_coeff  	1 1 0.01034 3.4
neigh_modify	every 1 delay 5 check yes

set             type 1 mass 39.95
set             type 1 diameter 0

#set initial velocity spike to 0.000001096c to try and get Rahman Conditions from full cutoff.
#set initial velocity spike to 0.0000009c to try and get Rahman Conditions from 3....  cutoff. gives 90.87 
#set initial velocity spike to 0.00000093c to try and get Rahman Conditions from 3....  cutoff. gives 96.39
#set initial velocity spike to 0.000000915c to try and get Rahman Conditions from 3....  cutoff. gives 93.0635998915
#set initial velocity spike to 0.00000092c to try and get Rahman Conditions from 3....  cutoff. gives 93.4825392925
#set initial velocity spike to 0.000000925c to try and get Rahman Conditions from 3....  cutoff. gives 93.6158749159 
#set initial velocity spike to 0.000000928c to try and get Rahman Conditions from 3....  cutoff. gives 95.2815929214
#set initial velocity spike to 0.0000009265c to try and get Rahman Conditions from 3....  cutoff. gives 94.6603577863

set    atom 1  vx -357969.141021 vy -683406.993562 vz 462313.027318
set    atom 2  vx -333249.653956 vy 185857.234803 vz -814445.895324
set    atom 3  vx -463547.767072 vy 745118.989276 vz -197082.519424
set    atom 4  vx 167047.737125 vy 225554.238756 vz -854482.708368
set    atom 5  vx 179932.793851 vy -31312.0038996 vz 880661.176679
set    atom 6  vx 210176.632519 vy -3961.25330028 vz -874488.680096
set    atom 7  vx -590999.973792 vy 673521.035078 vz 77516.4904116
set    atom 8  vx 413457.584761 vy 653829.431324 vz 458781.277231
set    atom 9  vx 350535.005305 vy -826845.203608 vz -48709.1298065
set    atom 10  vx -552645.532943 vy -175054.319274 vz 687647.627947
set    atom 11  vx -233519.841762 vy 832247.129254 vz 248502.634498
set    atom 12  vx -34513.1357844 vy -705541.393725 vz 556723.041735
set    atom 13  vx 3583.247459 vy -551963.788402 vz 710101.046775
set    atom 14  vx -743042.090261 vy -460523.713648 vz -211486.929309
set    atom 15  vx 481722.341423 vy -257321.75876 vz 714597.409905
set    atom 16  vx -844665.728724 vy -47725.5849972 vz -305257.981477
set    atom 17  vx 43006.4020225 vy -115335.270764 vz -890936.913986
set    atom 18  vx 498396.003915 vy -665515.441587 vz -342944.573205
set    atom 19  vx 799779.799088 vy -351824.212115 vz 213289.373249
set    atom 20  vx -862533.296208 vy -122067.465094 vz -223732.444893
set    atom 21  vx -515403.975582 vy -280983.69876 vz -681415.631597
set    atom 22  vx -880616.017392 vy -179287.115879 vz 35943.2885573
set    atom 23  vx 803406.699354 vy 180427.714153 vz 361806.405966
set    atom 24  vx -627608.445568 vy 140947.052235 vz 628619.063915
set    atom 25  vx -884932.279392 vy -139189.561755 vz 80258.8735828
set    atom 26  vx -821310.99859 vy -40071.970046 vz -364366.355213
set    atom 27  vx -224936.581923 vy -737882.235344 vz -462443.186647
set    atom 28  vx -653168.47172 vy -610318.524102 vz -99008.1142546
set    atom 29  vx -524585.454498 vy -253195.681734 vz -685290.017205
set    atom 30  vx -472857.859986 vy 127029.716571 vz 754446.323708
set    atom 31  vx -341656.300575 vy 696605.978125 vz -454897.179061
set    atom 32  vx -404783.297278 vy -416076.695237 vz -686986.918307
set    atom 33  vx -432337.329867 vy 412864.065341 vz -671973.255981
set    atom 34  vx 251198.425966 vy 143142.22131 vz 851663.087888
set    atom 35  vx 348321.570948 vy 392766.734885 vz -730292.22588
set    atom 36  vx 178430.859153 vy -216346.046108 vz 854562.564612
set    atom 37  vx -96640.1506057 vy -886447.087516 vz -117441.910428
set    atom 38  vx 105368.533937 vy 26178.5404042 vz 892822.779771
set    atom 39  vx -21482.841377 vy 76572.9119807 vz -895876.909334
set    atom 40  vx 188785.460573 vy 879002.897509 vz -25185.6317458
set    atom 41  vx -179944.098502 vy -191722.242509 vz 860106.425474
set    atom 42  vx -12370.8104258 vy 62702.6237467 vz 897126.359007
set    atom 43  vx 55938.1558659 vy 89490.4604924 vz -893186.845066
set    atom 44  vx -100243.71506 vy 151545.141755 vz -880855.05482
set    atom 45  vx -117971.970697 vy -463079.217107 vz -761945.282034
set    atom 46  vx -650314.772341 vy 572864.912414 vz -240492.929212
set    atom 47  vx 747008.250676 vy -353304.041736 vz 355070.820422
set    atom 48  vx 25934.1842976 vy 87768.8346321 vz -894731.473545
set    atom 49  vx -74114.0615124 vy -640152.404518 vz 627401.278988
set    atom 50  vx 60577.8163303 vy -730199.417119 vz -521593.23175
set    atom 51  vx -394023.069506 vy 214683.552054 vz -779472.35562
set    atom 52  vx -169842.691466 vy -58899.5292078 vz -881251.760631
set    atom 53  vx -42120.3733914 vy 89.7763482932 vz 898413.171144
set    atom 54  vx 103927.052377 vy 13057.2896543 vz -893279.930913
set    atom 55  vx 381816.805806 vy 695551.809995 vz 423490.219977
set    atom 56  vx -382347.069792 vy 514828.860639 vz 630620.585197
set    atom 57  vx 102277.499451 vy -397708.122906 vz -800179.931066
set    atom 58  vx 159102.465554 vy -315103.720793 vz -827234.19332
set    atom 59  vx -7255.49385656 vy 28792.8134593 vz -898909.723889
set    atom 60  vx -518307.11015 vy 144202.29775 vz 720752.243764
set    atom 61  vx 127706.442628 vy 168653.028636 vz 874166.792119
set    atom 62  vx -193156.558153 vy -194136.659028 vz 856692.396175
set    atom 63  vx -595907.66293 vy -584531.502393 vz -334869.138578
set    atom 64  vx -372656.216549 vy 275731.661668 vz -770726.770666
set    atom 65  vx 469888.997327 vy 148163.345804 vz -752444.22594
set    atom 66  vx 408802.509774 vy -475673.614123 vz -644620.416082
set    atom 67  vx -380541.888343 vy -453931.16356 vz -676797.406884
set    atom 68  vx 888624.934469 vy 130642.71141 vz -46888.8877612
set    atom 69  vx -125600.68316 vy 267598.681393 vz -849432.618932
set    atom 70  vx 236226.065635 vy -562824.014187 vz 660565.466073
set    atom 71  vx 886481.166071 vy 25207.7375689 vz -149786.755651
set    atom 72  vx -11178.5700192 vy -74851.1365205 vz 896210.191269
set    atom 73  vx 158410.03616 vy -871617.567059 vz -155272.139285
set    atom 74  vx -325249.670621 vy 105074.481262 vz -831920.888756
set    atom 75  vx -201300.320775 vy 437273.153646 vz 759730.695678
set    atom 76  vx 87823.297135 vy -315035.096668 vz 837830.72058
set    atom 77  vx -227544.925269 vy -225377.980044 vz 840445.377818
set    atom 78  vx -130332.254875 vy 109848.789744 vz -883100.84743
set    atom 79  vx 801179.884618 vy -243633.498384 vz 328136.969799
set    atom 80  vx 219290.288472 vy 867726.332489 vz -88787.0558488
set    atom 81  vx 470487.672586 vy -384839.379094 vz -662918.06601
set    atom 82  vx 21145.3557983 vy 176373.724527 vz 881683.357688
set    atom 83  vx -569971.317703 vy -690403.788841 vz -85998.0543315
set    atom 84  vx -128954.413924 vy -4361.911461 vz -890096.67613
set    atom 85  vx 282433.390282 vy -709250.56548 vz 475515.904487
set    atom 86  vx 749545.860455 vy 315926.190691 vz -383786.405584
set    atom 87  vx 675841.934921 vy -485462.952299 vz -341297.173951
set    atom 88  vx 193514.168882 vy 550059.038219 vz 684768.341058
set    atom 89  vx -150205.567888 vy 191322.834467 vz -865883.491231
set    atom 90  vx 447720.971444 vy -199296.527117 vz 754153.290789
set    atom 91  vx -198697.403716 vy 83293.4022403 vz -873213.554006
set    atom 92  vx -548302.657062 vy 381727.313476 vz 602136.87348
set    atom 93  vx -864262.051943 vy 243294.751889 vz -52717.4475316
set    atom 94  vx -591278.753349 vy 467467.398516 vz -490697.49048
set    atom 95  vx -725719.924473 vy 159323.180682 vz 506820.555345
set    atom 96  vx 867886.023167 vy -205153.636446 vz 116645.601054
set    atom 97  vx -407986.399802 vy -543660.756958 vz 588982.545514
set    atom 98  vx 567.417879173 vy -30747.6837667 vz 898874.083496
set    atom 99  vx -44198.3305891 vy -303641.87286 vz 845439.814901
set    atom 100  vx 786676.535728 vy -79910.3879456 vz 428572.885322
set    atom 101  vx -192775.835404 vy -852375.007366 vz -212637.447555
set    atom 102  vx -630324.659158 vy -452343.639869 vz -454968.587408
set    atom 103  vx 874801.314721 vy 177001.849632 vz -110965.602727
set    atom 104  vx 194688.455927 vy -327563.125297 vz -814689.612107
set    atom 105  vx -750539.018139 vy -101994.024925 vz 484983.258608
set    atom 106  vx -845004.322922 vy 300252.441561 vz -68822.4206192
set    atom 107  vx 382548.251965 vy 42996.5182339 vz 812852.074081
set    atom 108  vx 130957.948431 vy -266537.461144 vz -848957.099947
set    atom 109  vx 546391.923555 vy -176314.751161 vz -692307.254329
set    atom 110  vx 620725.191277 vy -494650.885106 vz 423014.300914
set    atom 111  vx -709926.542461 vy 374478.345314 vz 405820.937361
set    atom 112  vx 158911.363757 vy 347313.227273 vz -814273.332874
set    atom 113  vx -335278.142778 vy -380148.529022 vz -742964.348309
set    atom 114  vx 7822.97504133 vy -20202.958203 vz 899139.033488
set    atom 115  vx -125166.936512 vy 246667.539106 vz -855808.812268
set    atom 116  vx 511285.637953 vy -692024.469778 vz 261934.132276
set    atom 117  vx 882630.933986 vy -171790.89632 vz 19258.3050306
set    atom 118  vx -420495.212401 vy -148421.155351 vz 781073.170063
set    atom 119  vx -111063.897239 vy -351211.65975 vz 820509.317915
set    atom 120  vx -86131.374566 vy 76581.0804265 vz -891984.912673
set    atom 121  vx -570233.123306 vy 668033.70774 vz -193611.75173
set    atom 122  vx 819250.160414 vy -363424.510266 vz -75313.7437635
set    atom 123  vx 312494.636896 vy 427326.895763 vz -727089.530986
set    atom 124  vx 498574.079449 vy 53864.3892842 vz -746620.971356
set    atom 125  vx -404146.021499 vy -85402.5087388 vz -798932.265469
set    atom 126  vx 308301.447608 vy -501950.914084 vz 679643.919456
set    atom 127  vx 437860.133022 vy -253008.164794 vz -743764.567896
set    atom 128  vx -603285.397135 vy 562648.786965 vz 358320.292658
set    atom 129  vx 854212.32453 vy -131917.919131 vz 248675.143979
set    atom 130  vx 249532.917364 vy 106104.327112 vz 857552.071259
set    atom 131  vx 118213.796038 vy -21016.2916842 vz -891349.636175
set    atom 132  vx 438413.245789 vy 264535.01369 vz -739415.588454
set    atom 133  vx -25378.310716 vy -276549.892469 vz 855451.026255
set    atom 134  vx 288181.272431 vy 108358.002973 vz -845062.398532
set    atom 135  vx -68881.0418462 vy -97888.233916 vz 891399.829333
set    atom 136  vx 529106.56504 vy -372182.449217 vz 624857.445604
set    atom 137  vx 811926.587308 vy -250601.939346 vz -294778.29774
set    atom 138  vx -14263.2054367 vy -104349.767838 vz -893212.207106
set    atom 139  vx -794685.15913 vy -42737.8403495 vz -419009.946016
set    atom 140  vx 312019.814082 vy 392165.255874 vz -746840.282595
set    atom 141  vx 738058.773439 vy -477471.694448 vz -190290.272876
set    atom 142  vx 462524.511347 vy -397511.406164 vz -661041.691857
set    atom 143  vx 746417.290503 vy -445409.930415 vz 231066.186028
set    atom 144  vx 337986.923607 vy 193776.504277 vz -810639.171186
set    atom 145  vx 182869.465468 vy -880306.078431 vz 23244.9322864
set    atom 146  vx -202519.450804 vy 726806.337493 vz -489549.568304
set    atom 147  vx -47528.626267 vy 124993.161598 vz -889403.226461
set    atom 148  vx -180443.813313 vy 414893.485546 vz 777318.329829
set    atom 149  vx -351885.307311 vy -450842.026937 vz -694145.919275
set    atom 150  vx 253109.3609 vy -144044.852795 vz -850944.82301
set    atom 151  vx 46056.1984368 vy -834439.069407 vz -332431.38545
set    atom 152  vx 29765.1146097 vy 808333.795896 vz -393231.321699
set    atom 153  vx -10110.1167113 vy 411209.098814 vz 799828.245683
set    atom 154  vx 501658.134928 vy 290358.500115 vz 687714.633458
set    atom 155  vx 703981.407997 vy -267289.489068 vz -491819.953061
set    atom 156  vx 314773.730051 vy 490530.44396 vz 684994.702475
set    atom 157  vx -281332.830159 vy 654223.916637 vz 549329.833137
set    atom 158  vx -368856.724781 vy 120581.679634 vz -811372.377593
set    atom 159  vx -323370.802849 vy -179688.441796 vz 819794.942501
set    atom 160  vx -56468.2196461 vy 872785.169277 vz 209708.7229
set    atom 161  vx 95120.9590865 vy -105299.206509 vz 888135.372706
set    atom 162  vx 637314.991464 vy -143172.240941 vz 618265.049213
set    atom 163  vx -47158.2582893 vy 7046.14880964 vz 898135.184959
set    atom 164  vx -41494.6608107 vy 57603.0578736 vz -896593.799247
set    atom 165  vx -91515.5115726 vy 43385.6696151 vz -893679.447461
set    atom 166  vx -833434.591339 vy -336439.047078 vz 33405.2325475
set    atom 167  vx 5909.06169233 vy 32695.1206551 vz -898786.110304
set    atom 168  vx -605248.804394 vy 138606.320604 vz 650678.517141
set    atom 169  vx 825913.300888 vy 289525.245359 vz 207274.483995
set    atom 170  vx 31630.0604673 vy 103671.044748 vz 892845.011049
set    atom 171  vx -527417.691799 vy 415018.454233 vz -598757.564481
set    atom 172  vx -682280.382742 vy 120631.579801 vz 573464.786435
set    atom 173  vx 382757.897373 vy 51064.6795629 vz 812286.372223
set    atom 174  vx -59307.2992301 vy -862112.153938 vz -249330.3798
set    atom 175  vx -146752.297351 vy 723326.742986 vz 513986.912385
set    atom 176  vx -322581.031299 vy 82541.2105492 vz -835493.139892
set    atom 177  vx 151759.308374 vy 412945.269796 vz -784452.469226
set    atom 178  vx 255334.815652 vy 51223.6305314 vz 860872.018125
set    atom 179  vx 377465.369425 vy -578029.622935 vz 576473.772078
set    atom 180  vx -371564.876374 vy -451753.745372 vz -683211.867716
set    atom 181  vx 348171.86107 vy 652902.068926 vz -511288.180531
set    atom 182  vx 872638.847772 vy 217043.966045 vz 17712.0908702
set    atom 183  vx -64822.8331266 vy 17533.2509242 vz -896889.594888
set    atom 184  vx 30093.4279517 vy -82032.8746701 vz 895145.436824
set    atom 185  vx -411862.571183 vy -87509.9088483 vz 794752.539041
set    atom 186  vx 649285.969042 vy -401191.729168 vz -475808.035716
set    atom 187  vx -380193.576351 vy -16979.3262486 vz -814914.04883
set    atom 188  vx 127418.633882 vy -138923.707014 vz -879423.13784
set    atom 189  vx 425170.716292 vy -556153.572707 vz 564662.222548
set    atom 190  vx -360.531134273 vy -808722.778357 vz -393557.7439
set    atom 191  vx 540593.283896 vy 220821.651137 vz -684044.632897
set    atom 192  vx 638059.367747 vy 611452.590839 vz -167111.736231
set    atom 193  vx -2351.31704126 vy -66990.8880588 vz 896898.574101
set    atom 194  vx 666110.820283 vy 546805.065963 vz 257334.325224
set    atom 195  vx -415672.408851 vy 204407.427949 vz -770943.844855
set    atom 196  vx 231781.360465 vy 21828.1473164 vz -868746.967146
set    atom 197  vx 37588.6732438 vy 77497.6290863 vz 895266.200149
set    atom 198  vx 83425.8519461 vy -72631.3213708 vz -892572.225864
set    atom 199  vx -300415.903264 vy 218455.819233 vz -819113.9726
set    atom 200  vx 348871.862142 vy -117963.564539 vz 820544.56384
set    atom 201  vx -116653.80928 vy 168286.352047 vz 875780.76737
set    atom 202  vx -859321.823995 vy -247999.101751 vz -94777.6784772
set    atom 203  vx -442853.865709 vy -100341.494148 vz 776358.421207
set    atom 204  vx -291329.054303 vy -798448.471598 vz -294156.047571
set    atom 205  vx -687451.043869 vy -350564.56824 vz 461991.239936
set    atom 206  vx 82913.3545591 vy 216127.718547 vz -869099.847492
set    atom 207  vx 890879.583856 vy 122776.114785 vz -13414.6452685
set    atom 208  vx -596232.539138 vy -99768.9746941 vz -665937.888216
set    atom 209  vx -50917.8374314 vy -77540.7364234 vz 894603.357934
set    atom 210  vx 529764.427331 vy 266940.919498 vz 676027.038685
set    atom 211  vx 635799.497128 vy -219151.135634 vz -597203.599455
set    atom 212  vx 615880.060496 vy -589500.690407 vz 286532.802823
set    atom 213  vx -162592.963137 vy 684768.463875 vz -559978.606038
set    atom 214  vx -133258.019564 vy 206584.671062 vz -865150.526732
set    atom 215  vx 647359.349504 vy 586298.464242 vz 214709.905307
set    atom 216  vx 203483.449961 vy -434928.524418 vz -760494.591854
set    atom 217  vx -66491.0525479 vy -146508.534819 vz -884892.394111
set    atom 218  vx -105642.836243 vy -549015.426992 vz 704515.444881
set    atom 219  vx 668022.483634 vy 99448.4683877 vz -593949.765128
set    atom 220  vx 788140.87552 vy 401677.269045 vz 162510.590016
set    atom 221  vx -276115.38755 vy -391049.072314 vz 761420.56434
set    atom 222  vx -663378.37787 vy 459841.166584 vz -396731.129719
set    atom 223  vx -72923.8139206 vy 772534.027673 vz -454745.701959
set    atom 224  vx 236947.394355 vy 223281.850592 vz 838404.143301
set    atom 225  vx -532035.924563 vy 681058.263391 vz -249033.686159
set    atom 226  vx -565305.167283 vy 239060.524765 vz 657419.571767
set    atom 227  vx 654145.262343 vy -193894.793467 vz -586019.747807
set    atom 228  vx -219083.005764 vy -53208.7125496 vz 870684.690054
set    atom 229  vx 186727.617891 vy -238557.072625 vz 846843.362032
set    atom 230  vx 271334.034537 vy 276448.13857 vz 811710.926613
set    atom 231  vx -88808.7465886 vy 153004.316488 vz -881829.374463
set    atom 232  vx -88291.7292461 vy 75041.4996826 vz 891904.537421
set    atom 233  vx 712126.593413 vy 12491.1033188 vz -549217.668408
set    atom 234  vx 788673.234958 vy 325279.347081 vz -284795.07514
set    atom 235  vx 618655.900197 vy 521558.914105 vz 392634.099728
set    atom 236  vx -613465.703303 vy 422497.261491 vz 504059.773146
set    atom 237  vx 3928.47196559 vy -26917.9600474 vz 898988.515241
set    atom 238  vx -82855.8092672 vy -435080.84375 vz 782789.840425
set    atom 239  vx 7926.12266699 vy 139646.732556 vz -888457.273405
set    atom 240  vx -802047.815245 vy -385632.005651 vz 130106.180784
set    atom 241  vx 194308.779322 vy -19873.2303404 vz 877934.799968
set    atom 242  vx -469507.214404 vy -761126.863561 vz 95756.1130579
set    atom 243  vx 147909.264249 vy -856774.863147 vz 230173.941682
set    atom 244  vx 326482.276365 vy 154992.811044 vz 823593.899773
set    atom 245  vx -334160.321846 vy 323080.816482 vz -769984.431872
set    atom 246  vx -24213.8129308 vy 20445.5857499 vz -898841.49286
set    atom 247  vx -175314.17185 vy -47107.4326532 vz 880889.431732
set    atom 248  vx -498845.208098 vy -630715.429974 vz -402829.821078
set    atom 249  vx -70013.0844395 vy 623313.262121 vz 644592.200753
set    atom 250  vx -162663.647312 vy 59041.7951526 vz -882595.583644
set    atom 251  vx 619262.588997 vy 646004.933403 vz 90065.7087252
set    atom 252  vx 78434.8415116 vy 28766.4009221 vz 895511.49061
set    atom 253  vx 422082.052817 vy 794101.91522 vz -13009.5708359
set    atom 254  vx 300141.675496 vy -187114.525837 vz -826936.206035
set    atom 255  vx -375126.627924 vy -503640.101513 vz -643853.260588
set    atom 256  vx -450959.2142 vy -687897.573663 vz -363803.621859
set    atom 257  vx 29929.7131186 vy -252436.722132 vz 862728.389235
set    atom 258  vx -821485.660646 vy -33855.7587529 vz -364603.149948
set    atom 259  vx -886002.705458 vy 85150.7994195 vz 129108.122436
set    atom 260  vx 184686.968906 vy 102264.290194 vz -874272.897022
set    atom 261  vx -25520.7534524 vy -184108.637457 vz 879984.693479
set    atom 262  vx 363502.635798 vy 8637.831523 vz 822624.812192
set    atom 263  vx 237814.707311 vy 95230.3375609 vz 862145.989839
set    atom 264  vx -34003.2379289 vy 326626.032052 vz 837304.947433
set    atom 265  vx 464224.869099 vy 321910.817471 vz 699849.309855
set    atom 266  vx 411459.249929 vy 462628.52078 vz -652377.572736
set    atom 267  vx 338869.060087 vy 184442.149706 vz -812446.437328
set    atom 268  vx 50483.6405128 vy 247048.648652 vz 863330.022204
set    atom 269  vx 127017.561376 vy -162002.623428 vz -875523.871236
set    atom 270  vx 801108.78013 vy -4265.74939179 vz 408811.552896
set    atom 271  vx 422004.33061 vy -786600.41454 vz -109965.871029
set    atom 272  vx 450165.69269 vy 213007.361058 vz -748931.955026
set    atom 273  vx -732129.589011 vy -204309.661079 vz -480795.36945
set    atom 274  vx -561056.341751 vy -678810.28869 vz -182627.307241
set    atom 275  vx -605020.961751 vy 654579.250665 vz -119983.334014
set    atom 276  vx -6470.33058237 vy 552.507043902 vz -899376.556042
set    atom 277  vx -178323.198587 vy 675215.245478 vz 566750.005841
set    atom 278  vx 36047.937443 vy 39610.7975924 vz -897803.926768
set    atom 279  vx 600609.118577 vy -503002.364179 vz -441789.167265
set    atom 280  vx -13112.983646 vy -9117.45702258 vz 899258.184081
set    atom 281  vx -67885.7031818 vy 335483.702468 vz 831722.656107
set    atom 282  vx -131427.163975 vy 40702.0778079 vz -888814.154608
set    atom 283  vx -504928.90543 vy -343618.969143 vz -660222.056968
set    atom 284  vx -273129.701249 vy -791838.153438 vz -327586.423796
set    atom 285  vx -154003.671331 vy -107182.300585 vz 879610.813745
set    atom 286  vx -5522.52288236 vy -55684.6142223 vz 897657.554683
set    atom 287  vx -13096.7442086 vy 187795.579083 vz 879478.058719
set    atom 288  vx 15220.0638611 vy -461135.470212 vz 772038.074041
set    atom 289  vx 77373.8067166 vy 544806.164921 vz -711421.040382
set    atom 290  vx -598494.049998 vy 433070.6061 vz 513005.928084
set    atom 291  vx 421014.778973 vy -167493.706757 vz 776925.204948
set    atom 292  vx 833792.425693 vy -312898.134847 vz 125719.16348
set    atom 293  vx -294307.527979 vy -206472.210704 vz -824422.625346
set    atom 294  vx 765.482522366 vy 119236.699877 vz 891460.814304
set    atom 295  vx 392928.816949 vy -413369.921259 vz 695451.373577
set    atom 296  vx -475792.222236 vy -667838.697645 vz 369504.526613
set    atom 297  vx -243084.691711 vy -200736.972238 vz -842338.922663
set    atom 298  vx 405700.141497 vy 333081.042477 vz 730331.961735
set    atom 299  vx -176992.802037 vy 41395.6135916 vz -880840.684348
set    atom 300  vx -106773.092308 vy 36747.0564198 vz 892283.318573
set    atom 301  vx -349557.439705 vy 383010.856827 vz 734869.131138
set    atom 302  vx -297840.176167 vy 619357.416769 vz -580179.265187
set    atom 303  vx 18070.4777176 vy -2526.7164027 vz 899214.898419
set    atom 304  vx -547465.314037 vy -48316.4096103 vz -711946.356469
set    atom 305  vx -132908.570474 vy 507916.840278 vz 730257.595138
set    atom 306  vx -600959.349016 vy 625391.515016 vz 238020.322191
set    atom 307  vx -560967.973184 vy 468389.789458 vz -524257.85468
set    atom 308  vx 201872.269648 vy -331171.408367 vz 811476.090238
set    atom 309  vx -299301.035872 vy -756934.844271 vz 382608.012795
set    atom 310  vx 152350.423669 vy -1793.39275013 vz -886400.864254
set    atom 311  vx -690528.996072 vy -534210.234654 vz -216123.785768
set    atom 312  vx -160074.092632 vy -282888.002268 vz -838612.558361
set    atom 313  vx -507944.98863 vy 664733.130616 vz -330215.253413
set    atom 314  vx 756698.378459 vy 292714.943641 vz 388131.273935
set    atom 315  vx 83576.9272967 vy -103944.863396 vz -889455.295446
set    atom 316  vx -789248.257186 vy 238492.910302 vz -359344.793012
set    atom 317  vx 548358.150178 vy 280124.392388 vz -655556.270599
set    atom 318  vx -8130.98247084 vy 845052.610722 vz 307799.175171
set    atom 319  vx 219108.051254 vy 26406.003884 vz -871902.944619
set    atom 320  vx -349967.384349 vy -642557.364363 vz -523032.717328
set    atom 321  vx 119188.299266 vy -741850.322684 vz 494340.579005
set    atom 322  vx 199506.596073 vy -87487.0373772 vz -872618.757771
set    atom 323  vx 253299.574556 vy 831132.198154 vz -232333.71413
set    atom 324  vx 498541.12487 vy 130190.600599 vz -737175.361992
set    atom 325  vx -54225.5471677 vy -464616.780305 vz 768186.954779
set    atom 326  vx 366939.602224 vy -649706.150289 vz 502152.971311
set    atom 327  vx -366969.740314 vy 342193.942993 vz -746429.417342
set    atom 328  vx -401536.124221 vy -803052.396642 vz 52876.7358383
set    atom 329  vx 237890.81417 vy -387215.435655 vz 776139.502232
set    atom 330  vx -307047.186969 vy 757822.394619 vz 374629.955006
set    atom 331  vx -504307.382259 vy 718212.849888 vz -196887.598531
set    atom 332  vx 461608.960184 vy 69797.7800577 vz 768742.998522
set    atom 333  vx -285246.063623 vy -699616.445529 vz 487946.587583
set    atom 334  vx 349233.518964 vy 459391.360842 vz 689866.571748
set    atom 335  vx -319393.754367 vy 777883.104105 vz 319070.315165
set    atom 336  vx -21206.8253834 vy -110300.119622 vz 892358.960379
set    atom 337  vx -156342.666815 vy 501646.329791 vz 729950.882142
set    atom 338  vx 854400.868013 vy -149610.937302 vz -237773.178005
set    atom 339  vx -111.588875872 vy -113.490003487 vz 899399.985917
set    atom 340  vx 768083.042214 vy 430911.895432 vz -182438.314611
set    atom 341  vx -37382.4138472 vy -849154.893519 vz 294038.912301
set    atom 342  vx 231492.248522 vy -413111.284595 vz 764637.669366
set    atom 343  vx -132716.851028 vy 826108.687834 vz 329925.799747
set    atom 344  vx -427432.215967 vy 480591.646928 vz -628692.07857
set    atom 345  vx -24493.6868307 vy 75071.3421943 vz 895926.734106
set    atom 346  vx 205903.20828 vy 373302.992658 vz -791940.088954
set    atom 347  vx 870827.102279 vy 89512.5905045 vz 206320.173705
set    atom 348  vx 63387.6623321 vy -384392.966188 vz 810644.442286
set    atom 349  vx 364423.576215 vy 96189.3663124 vz 816617.060137
set    atom 350  vx -622583.038182 vy 475291.18227 vz 442050.916325
set    atom 351  vx -445271.445286 vy 306455.927138 vz -718845.230029
set    atom 352  vx 318503.159711 vy -639617.781501 vz 546228.149075
set    atom 353  vx -472189.12476 vy 33567.5690859 vz 764742.446033
set    atom 354  vx -347382.986673 vy -510456.830331 vz 653971.899196
set    atom 355  vx -722593.557539 vy -412259.51965 vz 341790.87036
set    atom 356  vx -620834.229973 vy -313529.503753 vz 570249.479763
set    atom 357  vx -612774.898342 vy 632394.563078 vz 183042.073173
set    atom 358  vx 79501.8110852 vy -271925.754797 vz 853613.616288
set    atom 359  vx -203965.517047 vy 284209.481888 vz 828579.144235
set    atom 360  vx 877979.626719 vy 4643.93428678 vz -195065.550368
set    atom 361  vx -80692.8468916 vy -110634.56492 vz -888914.516422
set    atom 362  vx -627537.541618 vy -421718.25586 vz 487104.4103
set    atom 363  vx -324580.635432 vy -613052.766232 vz -572480.634535
set    atom 364  vx -347895.406131 vy -612627.585182 vz -559085.492806
set    atom 365  vx -426154.902525 vy 174441.104549 vz 772581.814501
set    atom 366  vx 78493.3455147 vy -168192.164263 vz 880040.08465
set    atom 367  vx -202477.747771 vy -42423.7936468 vz -875284.721328
set    atom 368  vx -226715.116964 vy 405775.244817 vz 769978.61427
set    atom 369  vx -226292.286051 vy 89200.2819485 vz -865884.213376
set    atom 370  vx 200431.981253 vy 276740.412733 vz 831962.814585
set    atom 371  vx -875557.64736 vy 33118.8894098 vz 203032.769063
set    atom 372  vx 489542.037696 vy -554770.263304 vz 511369.639578
set    atom 373  vx 853543.550439 vy 243322.241625 vz -145526.816206
set    atom 374  vx 105394.192989 vy -190291.842652 vz 872697.793457
set    atom 375  vx 174226.140977 vy -248212.61206 vz -846732.608924
set    atom 376  vx 660498.771492 vy -320360.912567 vz 519644.704156
set    atom 377  vx -291140.233998 vy -526817.154321 vz 668297.396419
set    atom 378  vx 334224.65387 vy -834500.744161 vz -28683.5970638
set    atom 379  vx 284213.50349 vy 93114.7819955 vz -848217.355286
set    atom 380  vx 64790.8974675 vy 343900.665415 vz 828525.69781
set    atom 381  vx 186916.007791 vy -804016.476794 vz 357127.807759
set    atom 382  vx 297147.614973 vy -688438.32298 vz -496665.209541
set    atom 383  vx 328302.737587 vy -285516.50957 vz -787158.17677
set    atom 384  vx 44517.3859846 vy -497138.326584 vz 748192.519734
set    atom 385  vx 32414.1835562 vy 84039.3533013 vz -894878.241886
set    atom 386  vx 138548.045491 vy 634240.313262 vz 622466.08271
set    atom 387  vx -650117.321499 vy -65691.8414267 vz 618022.985218
set    atom 388  vx 76603.4903192 vy -76293.3230539 vz 892878.263891
set    atom 389  vx -826410.573807 vy 270279.481606 vz 230032.444065
set    atom 390  vx -541249.151055 vy 192817.327743 vz -691947.392946
set    atom 391  vx 549607.11665 vy 656202.678739 vz 276134.789085
set    atom 392  vx -206345.289343 vy 869169.769466 vz -104335.484911
set    atom 393  vx 276423.174304 vy 390257.566246 vz -761714.920883
set    atom 394  vx 81046.6431377 vy 415901.627621 vz -793333.245098
set    atom 395  vx 439845.602914 vy 680410.823072 vz -390509.049118
set    atom 396  vx -178614.038328 vy -487776.368935 vz -734228.574234
set    atom 397  vx -394958.926989 vy 397977.410869 vz -703236.650374
set    atom 398  vx 373136.287523 vy -815363.501351 vz 69799.9398067
set    atom 399  vx 3155.94910136 vy -3159.28741568 vz 899388.914146
set    atom 400  vx -6475.74075031 vy 806125.425202 vz 398798.474953
set    atom 401  vx 13622.9560135 vy 419065.416035 vz 795687.722761
set    atom 402  vx -31346.3810984 vy 38970.2355162 vz -898008.399257
set    atom 403  vx -86777.1016069 vy -34274.2173544 vz 894547.579876
set    atom 404  vx 412109.385117 vy -652226.492539 vz -462262.714405
set    atom 405  vx 354250.824323 vy 554668.113891 vz 613000.813131
set    atom 406  vx -221341.043306 vy -224054.799344 vz 842453.529543
set    atom 407  vx 97138.236343 vy 596510.797642 vz 666077.616601