#Run with: ~/Downloads/Current_LAMMPS_Build/LAMMPS_Files/build3/lmp -in non_relativistic_script_experimental.txt     


#Initialization

units           	metal
dimension       	3
atom_style      	sphere
pair_style      	lj/cut 3.816370964
#pair_style          lj/cut 6.0
boundary		    p p p
comm_modify         mode single cutoff 13.0 vel yes #made the cutoff longer to accomodate a longer gr


#System Definitions


#for 500 atoms, use 28.982 angstroms as box side to get the same density as Rahman. 
region          myreg block 0 28.982 0 28.982 0 28.982
create_box	    1 myreg
create_atoms	1 random 500 341341 myreg

#sampling the tracers alone for the diffusion calculation to avoid making 10GB files for little gain. 
#group           tracers id 100

#Simulation Settings


pair_coeff  	1 1 0.01034 3.4
neigh_modify	every 1 delay 5 check yes

set             type 1 mass 39.95
set             type 1 diameter 0

#set initial velocity spike to 0.000001096c to try and get Rahman Conditions from full cutoff.
#set initial velocity spike to 0.0000009c to try and get Rahman Conditions from 3....  cutoff. gives 90.87 
#set initial velocity spike to 0.00000093c to try and get Rahman Conditions from 3....  cutoff. gives 96.39
#set initial velocity spike to 0.000000915c to try and get Rahman Conditions from 3....  cutoff. gives 93.0635998915
#set initial velocity spike to 0.00000092c to try and get Rahman Conditions from 3....  cutoff. gives 93.4825392925
#set initial velocity spike to 0.000000925c to try and get Rahman Conditions from 3....  cutoff. gives 93.6158749159 
#set initial velocity spike to 0.000000928c to try and get Rahman Conditions from 3....  cutoff. gives 95.2815929214
#set initial velocity spike to 0.0000009265c to try and get Rahman Conditions from 3....  cutoff. gives 94.6603577863

set    atom 1  vx -0.481097397654 vy -1.35176323106 vz -2.37836168775
set    atom 2  vx -0.388667471835 vy -0.327615877123 vz 2.73073768239
set    atom 3  vx -0.0712493171138 vy 0.0146293105082 vz -2.77669450511
set    atom 4  vx -0.508623265817 vy -0.100488160638 vz 2.72883260015
set    atom 5  vx -0.248072172898 vy 2.76433583744 vz 0.110591281312
set    atom 6  vx 0.8809975933 vy -1.03873876661 vz -2.42078249166
set    atom 7  vx -0.0382068422289 vy -1.67669630606 vz 2.2141708586
set    atom 8  vx 0.463029896521 vy -2.53265861368 vz -1.04238501433
set    atom 9  vx -0.00996916442762 vy -0.0137008510766 vz -2.77759531953
set    atom 10  vx -1.26293680311 vy 0.845856846461 vz 2.32483110855
set    atom 11  vx 0.768454229738 vy 1.3973078816 vz -2.27427606887
set    atom 12  vx -0.852245532139 vy 1.60606348176 vz -2.09989535504
set    atom 13  vx -0.110709109767 vy 0.591118136523 vz 2.71176062703
set    atom 14  vx -0.228392488635 vy 0.891632166898 vz 2.62071589584
set    atom 15  vx 0.892731659197 vy 0.827134102641 vz 2.49683844442
set    atom 16  vx -0.6930193371 vy 0.336929022332 vz 2.66861872303
set    atom 17  vx 0.441760017356 vy -1.02180685955 vz 2.54481466623
set    atom 18  vx 0.181819077591 vy -0.484572108256 vz 2.72900248287
set    atom 19  vx -0.314853180128 vy 1.53757227166 vz 2.2917377339
set    atom 20  vx -2.35210863176 vy 1.46276028431 vz -0.207942760504
set    atom 21  vx -1.7402994451 vy -1.92075792596 vz -0.998683977981
set    atom 22  vx -0.408450607585 vy 0.30002179117 vz 2.73102139915
set    atom 23  vx 0.487338436799 vy 1.05341269546 vz -2.52351853524
set    atom 24  vx 1.22051977593 vy -0.499719815013 vz 2.44457244517
set    atom 25  vx -1.9297850074 vy -1.88550036209 vz -0.66040977157
set    atom 26  vx 2.14649958722 vy 0.66953493983 vz 1.63082351682
set    atom 27  vx -2.32904789937 vy -0.342857532549 vz 1.47421418099
set    atom 28  vx 2.49129645579 vy -0.616455624671 vz 1.06242519208
set    atom 29  vx 2.62183616524 vy 0.82338361975 vz -0.404150212174
set    atom 30  vx 0.173204269887 vy -0.511388204341 vz -2.72466607898
set    atom 31  vx 2.6038090845 vy -0.952401870764 vz 0.168617272737
set    atom 32  vx -0.7886271344 vy -2.6547950496 vz 0.213197898989
set    atom 33  vx -2.32332342963 vy 1.35027898749 vz 0.70302045056
set    atom 34  vx -2.17806219385 vy -0.154570447751 vz 1.71682145636
set    atom 35  vx -0.0124256220556 vy 0.00993916286311 vz 2.77760142453
set    atom 36  vx 0.31677307429 vy -0.318392143805 vz -2.74109542314
set    atom 37  vx -0.275760597695 vy 0.41835487157 vz -2.73207945543
set    atom 38  vx -2.58762845907 vy -0.818358925037 vz 0.591430878669
set    atom 39  vx -0.484579092868 vy -1.73124240795 vz 2.11738179936
set    atom 40  vx 2.14356459056 vy 1.67638797617 vz 0.556935414604
set    atom 41  vx -1.00625528973 vy -2.57733228552 vz 0.245217125278
set    atom 42  vx 0.0323017501434 vy 0.224086455204 vz -2.76840472369
set    atom 43  vx 1.25644301756 vy -2.01149970883 vz -1.44587092149
set    atom 44  vx -0.45400310746 vy -0.968901351812 vz -2.56328582204
set    atom 45  vx 0.937838480734 vy 2.26834895664 vz 1.30014416568
set    atom 46  vx 2.29612357074 vy -1.43432360439 vz -0.621172441741
set    atom 47  vx 1.40345302088 vy 1.38893899229 vz -1.95358412936
set    atom 48  vx 1.29560678359 vy 2.08548124793 vz -1.29903575142
set    atom 49  vx -0.0247771275911 vy 0.0788617827567 vz -2.776416714
set    atom 50  vx 0.372693257879 vy -1.08042685716 vz 2.53162011338
set    atom 51  vx -0.0163499375901 vy -1.64960539629 vz -2.23469406691
set    atom 52  vx -2.41139739363 vy -1.15314697036 vz -0.755471727713
set    atom 53  vx -0.0968513973745 vy 0.306467776115 vz 2.75898897527
set    atom 54  vx 2.67388412736 vy -0.752084090918 vz -0.00600418449057
set    atom 55  vx 0.0191513161273 vy 0.015841607924 vz -2.77753580124
set    atom 56  vx -0.475594584916 vy 1.07027521809 vz 2.51865908867
set    atom 57  vx 0.0986766948884 vy 0.101352479046 vz -2.77404279734
set    atom 58  vx 1.52915081227 vy 1.09260091358 vz 2.04529799629
set    atom 59  vx 0.3620256424 vy 0.692872035324 vz -2.66536838608
set    atom 60  vx -0.143066146428 vy 0.0518712281922 vz 2.7734751324
set    atom 61  vx -1.49707794271 vy 1.05708169699 vz 2.08726107039
set    atom 62  vx 0.692431794141 vy -0.785337973499 vz 2.57276219936
set    atom 63  vx -0.429290660878 vy -1.70391683612 vz -2.15120891609
set    atom 64  vx -1.7385080584 vy -1.01498401763 vz 1.91382340655
set    atom 65  vx 0.454582391309 vy -1.6623006166 vz 2.17840179172
set    atom 66  vx 0.155206933017 vy -0.0275508896479 vz -2.77317049837
set    atom 67  vx -1.94518155415 vy 0.976842109275 vz 1.72550603347
set    atom 68  vx -2.54936651393 vy -1.10032140499 vz -0.0731166192302
set    atom 69  vx -0.994923387386 vy -0.169701380597 vz -2.58778896962
set    atom 70  vx -2.40141338866 vy 0.51154295319 vz 1.29879190036
set    atom 71  vx 0.714837655628 vy -2.6761451022 vz 0.206342857156
set    atom 72  vx 1.55213256219 vy 0.00729477520107 vz 2.30350909533
set    atom 73  vx -1.73792068313 vy -0.781366237903 vz -2.02099514052
set    atom 74  vx -2.46734885132 vy -1.17917373746 vz 0.486889925353
set    atom 75  vx -1.48060959198 vy -2.12326925073 vz 1.0073955438
set    atom 76  vx 1.85498571684 vy -0.49899179196 vz -2.006329494
set    atom 77  vx 0.146232672531 vy 1.28984913535 vz -2.45565226979
set    atom 78  vx 0.335327654341 vy -1.800081762 vz 2.08867993502
set    atom 79  vx -0.484136553655 vy -1.83669014234 vz -2.02669780062
set    atom 80  vx -0.585410510249 vy 1.25707873131 vz -2.40673439631
set    atom 81  vx 0.294976527923 vy -1.35735915278 vz -2.40538725259
set    atom 82  vx -1.18360702432 vy -0.898924263493 vz -2.34655757165
set    atom 83  vx 0.447220203919 vy -1.79727957573 vz -2.07004905074
set    atom 84  vx 0.0436748474034 vy -0.00307705258025 vz 2.77730190942
set    atom 85  vx 1.55961079977 vy 2.26063394208 vz -0.415296508239
set    atom 86  vx -2.3730477572 vy 1.0083405429 vz -1.03306173494
set    atom 87  vx -0.778919180622 vy 0.768776949456 vz -2.55295706361
set    atom 88  vx -2.63820118876 vy -0.739758549853 vz 0.45604235786
set    atom 89  vx -0.499449460456 vy -2.64083666263 vz 0.701323616016
set    atom 90  vx 1.18540266638 vy -1.7481616203 vz -1.80390529809
set    atom 91  vx 2.76925133244 vy 0.213460857058 vz 0.0316919061447
set    atom 92  vx 2.38311558577 vy -1.4238544257 vz 0.0933891636669
set    atom 93  vx -0.45649689816 vy 2.2199870568 vz -1.60579914878
set    atom 94  vx -1.06247127061 vy -2.29502873774 vz 1.14861688508
set    atom 95  vx -2.16461227258 vy 1.39898753708 vz -1.03566907703
set    atom 96  vx 0.178811251128 vy 0.159459038042 vz -2.76729510683
set    atom 97  vx 0.965699190644 vy 1.95659491822 vz -1.71886132535
set    atom 98  vx 0.200527687858 vy -2.06267205022 vz 1.84945816829
set    atom 99  vx -0.0592672562617 vy -0.197700498464 vz -2.76996836838
set    atom 100  vx -0.287256046934 vy 1.86175639797 vz -2.04124225282
set    atom 101  vx -1.35548335822 vy -0.689537030768 vz -2.32433354005
set    atom 102  vx -0.0408761610881 vy 0.493094671675 vz 2.73322330607
set    atom 103  vx 0.379422233354 vy -2.75154937484 vz 0.0183756165952
set    atom 104  vx 1.43481979357 vy 0.821100071445 vz -2.23213119894
set    atom 105  vx -1.36347312346 vy -1.87674145878 vz -1.52777792728
set    atom 106  vx -1.20915341704 vy 2.49951013164 vz -0.0756304997932
set    atom 107  vx -2.06608533284 vy -1.81261501781 vz -0.401299204156
set    atom 108  vx -0.250713852114 vy 0.622471551896 vz 2.69536539045
set    atom 109  vx 0.188635440808 vy 2.58006586132 vz 1.01143446567
set    atom 110  vx 2.03144844186 vy -1.59756001527 vz -1.01800888124
set    atom 111  vx -0.239232352511 vy 0.624898858067 vz 2.69584720548
set    atom 112  vx -0.552589987922 vy -2.40111577478 vz 1.28242356419
set    atom 113  vx -1.38340479238 vy -0.523633781839 vz 2.35102566969
set    atom 114  vx -0.00833182608494 vy 0.000101696535099 vz 2.77763450204
set    atom 115  vx -1.01065048432 vy 0.0456358451059 vz -2.58685635952
set    atom 116  vx -0.116417005388 vy 0.0899855917546 vz -2.77374701996
set    atom 117  vx -1.52353887365 vy -2.01754442591 vz -1.15050712583
set    atom 118  vx -2.68968921875 vy 0.634203730084 vz -0.280500252975
set    atom 119  vx -1.0467967071 vy -2.28164671645 vz 1.18896079495
set    atom 120  vx 1.25402554106 vy 1.87803387442 vz -1.61732234434
set    atom 121  vx 0.766172333896 vy -0.910625552304 vz 2.50979360005
set    atom 122  vx 1.75388490701 vy 0.341938642165 vz -2.1265673172
set    atom 123  vx 1.31037616773 vy -0.747999713605 vz 2.33210925647
set    atom 124  vx 0.629153073723 vy -0.108891118207 vz -2.70326321153
set    atom 125  vx 0.700149014443 vy 1.40366162749 vz -2.29234557816
set    atom 126  vx -0.788357451782 vy -1.45269415432 vz -2.23237431423
set    atom 127  vx -0.548301691293 vy -0.939419677988 vz 2.55581274364
set    atom 128  vx -1.09559138375 vy -0.698833754871 vz 2.45492031633
set    atom 129  vx 1.57267557416 vy 2.12229127957 vz 0.859007636599
set    atom 130  vx 0.214429678634 vy -0.0450916820379 vz -2.76899070236
set    atom 131  vx -1.80950509861 vy -0.536394108286 vz 2.03796357065
set    atom 132  vx 1.1840901662 vy -1.18141953966 vz -2.21754395813
set    atom 133  vx -1.10997723248 vy -1.98868074575 vz -1.59010134629
set    atom 134  vx -2.47511991861 vy -1.25992946541 vz -0.0410120388945
set    atom 135  vx 0.702015219906 vy 0.873225576366 vz 2.54164800482
set    atom 136  vx 1.83406116382 vy -1.36007319079 vz 1.58169005171
set    atom 137  vx -2.19877379289 vy 1.02978858422 vz 1.34916720095
set    atom 138  vx 0.20644341321 vy 2.65929291188 vz 0.775154941017
set    atom 139  vx -0.640934045353 vy -0.824286565874 vz -2.57392269958
set    atom 140  vx -0.552436165276 vy -0.734574321703 vz 2.62117105619
set    atom 141  vx 1.44652162175 vy -2.23413435523 vz -0.794696003004
set    atom 142  vx 2.36975022545 vy 1.23470799661 vz -0.758355384176
set    atom 143  vx 1.75378263472 vy -2.02962517707 vz -0.721242654993
set    atom 144  vx 0.600790794609 vy 0.655828321029 vz 2.63139934086
set    atom 145  vx 1.39558323208 vy -1.02244379731 vz 2.1730805278
set    atom 146  vx -0.668362929992 vy -0.89912389092 vz -2.54169039798
set    atom 147  vx 1.46445118676 vy 1.57961135421 vz 1.75371991716
set    atom 148  vx 1.61080253517 vy -1.49473621007 vz -1.69894135025
set    atom 149  vx -0.885605745202 vy -0.207741846553 vz 2.62447492765
set    atom 150  vx 0.446386412422 vy 0.692786983558 vz -2.65256634655
set    atom 151  vx -0.778542907121 vy 0.268892716794 vz 2.6527138001
set    atom 152  vx 0.836055954474 vy -0.936968868419 vz -2.47758403232
set    atom 153  vx 0.0689006727006 vy 0.443104331868 vz 2.74121033578
set    atom 154  vx 2.51563529511 vy -0.733438767038 vz 0.921395405691
set    atom 155  vx 2.15426041554 vy 0.965694026302 vz -1.46352996764
set    atom 156  vx 0.150443743347 vy 2.02094767138 vz -1.89959470578
set    atom 157  vx 1.65368940003 vy 2.19272478821 vz -0.415442207783
set    atom 158  vx -1.98012568498 vy -0.139295889258 vz 1.9429415286
set    atom 159  vx 0.94637411902 vy 0.412874192859 vz -2.57861082452
set    atom 160  vx -1.46556814435 vy -2.3501664351 vz -0.210120437375
set    atom 161  vx -2.25256776971 vy 1.59549928001 vz 0.309262585793
set    atom 162  vx -0.507655144798 vy 1.61355336608 vz -2.20319192205
set    atom 163  vx 0.136060880124 vy 0.730737290198 vz 2.67634700781
set    atom 164  vx 1.8934635946 vy 1.28471149617 vz -1.57468563343
set    atom 165  vx 2.69027147125 vy -0.672886949183 vz -0.158067774148
set    atom 166  vx 1.04288846838 vy 0.105857961913 vz -2.5722559342
set    atom 167  vx 0.0940958377237 vy -0.245611817837 vz -2.76516611886
set    atom 168  vx -1.74828423009 vy 1.17977710014 vz -1.80747091303
set    atom 169  vx 2.77304115174 vy -0.0570452761611 vz 0.149370224016
set    atom 170  vx -0.55663802777 vy 0.597770772905 vz -2.65483465883
set    atom 171  vx 1.79887257748 vy 1.78542042622 vz 1.13650966042
set    atom 172  vx -1.04305963008 vy -2.37089844738 vz -1.00309023369
set    atom 173  vx 0.5799548889 vy 1.4986506372 vz -2.26561723401
set    atom 174  vx -1.88447503128 vy -0.525306396305 vz -1.97183414695
set    atom 175  vx -0.876025668677 vy 0.619277537207 vz 2.56210796344
set    atom 176  vx 1.7326679019 vy 1.61611893008 vz 1.44960146322
set    atom 177  vx -0.517673162662 vy 0.167330694103 vz -2.72384613958
set    atom 178  vx -0.381008920512 vy -2.69816319599 vz -0.538581866491
set    atom 179  vx -0.209726355455 vy 2.67364559786 vz -0.723157610388
set    atom 180  vx 2.09553454316 vy -1.68782580334 vz 0.68942141872
set    atom 181  vx -0.0982049162032 vy 1.73731119276 vz 2.16504699038
set    atom 182  vx 2.48843135616 vy -1.07004988598 vz 0.6148377703
set    atom 183  vx 1.29124086929 vy 0.612016800035 vz 2.38190161647
set    atom 184  vx 0.936750589436 vy 1.11092680102 vz 2.36720570136
set    atom 185  vx -2.22951965811 vy 1.48345259683 vz -0.737518368367
set    atom 186  vx 1.56697689474 vy 0.0752372512712 vz -2.29221413135
set    atom 187  vx 1.08815043617 vy 2.00855605153 vz 1.58017532974
set    atom 188  vx -0.928050583788 vy -1.60881241406 vz 2.06537347395
set    atom 189  vx -0.274069945049 vy -1.87439982941 vz 2.03146100167
set    atom 190  vx 0.984457714762 vy 1.8939309101 vz -1.77741148084
set    atom 191  vx 0.00360222742228 vy 0.354772536577 vz -2.75489497583
set    atom 192  vx 1.80071803995 vy 1.65681097151 vz -1.31442565476
set    atom 193  vx 0.611480479825 vy -0.352700899756 vz -2.68645054946
set    atom 194  vx 0.125980490633 vy -0.0297300764963 vz -2.77462932572
set    atom 195  vx 1.69659075274 vy 0.443310229967 vz -2.15415382792
set    atom 196  vx 0.922975655489 vy 0.130448782951 vz 2.61656681761
set    atom 197  vx 2.31516017763 vy -1.52466654235 vz 0.175351484608
set    atom 198  vx -2.09330996321 vy 1.60018714913 vz -0.879077551926
set    atom 199  vx 1.10333137437 vy -0.770037548838 vz 2.43002570116
set    atom 200  vx -0.184948761198 vy 0.059695571521 vz -2.77083980971
set    atom 201  vx -2.11031157609 vy 1.29371232387 vz -1.26024455225
set    atom 202  vx -0.48342925493 vy 2.06529954638 vz -1.79336465779
set    atom 203  vx -0.0923158673546 vy 2.7302073856 vz 0.502760647706
set    atom 204  vx 1.22952031749 vy 0.850666389022 vz 2.3409334335
set    atom 205  vx -1.19102411294 vy -2.50810175069 vz -0.0788037258466
set    atom 206  vx 1.3043482336 vy -1.36891998748 vz 2.03471290604
set    atom 207  vx 1.9566644369 vy -0.6774456105 vz -1.85144661894
set    atom 208  vx 2.07319860214 vy 0.410283934647 vz -1.80245319098
set    atom 209  vx -2.35873334675 vy 0.766624349542 vz 1.25059464345
set    atom 210  vx 0.59072558895 vy -2.54029253237 vz 0.955656834415
set    atom 211  vx 1.24839589751 vy -2.44085314859 vz -0.446168630371
set    atom 212  vx -2.17706434799 vy 0.199596251709 vz -1.71343952844
set    atom 213  vx 2.20449277447 vy 1.32369224539 vz 1.05041577644
set    atom 214  vx -0.0425621358683 vy -0.0882875378017 vz -2.77591725955
set    atom 215  vx -1.2578478826 vy 2.23469792536 vz 1.06736439103
set    atom 216  vx 1.15877056876 vy -0.0678924939863 vz -2.52348256084
set    atom 217  vx -1.21095235944 vy -0.925883307188 vz 2.32199425952
set    atom 218  vx -0.0299138210748 vy -1.67204108354 vz 2.2178157351
set    atom 219  vx 0.504060050064 vy 1.31348470163 vz 2.39499567037
set    atom 220  vx -0.500240136029 vy 2.7278408242 vz 0.154813115458
set    atom 221  vx 1.78818123753 vy 1.94617296776 vz -0.85448317591
set    atom 222  vx -1.62114694298 vy 0.267652153677 vz -2.23954633141
set    atom 223  vx -0.958047456882 vy 1.05161515917 vz -2.38570188498
set    atom 224  vx -2.7263877873 vy -0.0446825149106 vz -0.529278719329
set    atom 225  vx -1.05604898692 vy -1.5737657702 vz -2.03060205219
set    atom 226  vx 2.47070012538 vy -0.911438912071 vz 0.883313566428
set    atom 227  vx -0.345007051484 vy -0.215293205825 vz 2.74771574705
set    atom 228  vx 0.136198984222 vy -0.00897486098697 vz -2.77429128701
set    atom 229  vx -0.0771585997009 vy -1.86862714307 vz -2.05368011318
set    atom 230  vx 2.69889307208 vy -0.363107309901 vz 0.547222188494
set    atom 231  vx -2.41742966185 vy -0.9652735035 vz 0.969331599636
set    atom 232  vx 0.845211596026 vy 0.934919702312 vz 2.47525056606
set    atom 233  vx 1.64719043164 vy 0.562879269221 vz -2.16454463267
set    atom 234  vx 0.00350478660429 vy 0.017433888516 vz 2.77759007642
set    atom 235  vx 2.71916328327 vy -0.259615902612 vz 0.504057019224
set    atom 236  vx 0.619917509496 vy 0.100024206004 vz 2.7057384013
set    atom 237  vx -1.69145230233 vy 2.10801458863 vz -0.640770208157
set    atom 238  vx -0.120771024504 vy -1.0725563934 vz 2.55936710912
set    atom 239  vx -0.497128130149 vy -1.04919916909 vz 2.52336433802
set    atom 240  vx -1.92430234627 vy 1.05975068111 vz 1.69979758519
set    atom 241  vx 2.26208518697 vy -1.61136100087 vz 0.0425345550695
set    atom 242  vx 2.08089668315 vy -1.83981572795 vz 0.0164297847123
set    atom 243  vx -0.635586904435 vy -1.77199709339 vz -2.04239527137
set    atom 244  vx 1.04930182235 vy 2.55677135366 vz 0.277864692483
set    atom 245  vx 1.59575327328 vy 1.77127588221 vz -1.42529859908
set    atom 246  vx 0.172615607747 vy -0.29402606135 vz -2.75664204855
set    atom 247  vx -0.162151623024 vy -2.64980603168 vz 0.817042044342
set    atom 248  vx 0.174320726775 vy -2.76641184974 vz 0.178607442361
set    atom 249  vx 2.35637851112 vy 1.26150444942 vz 0.755916459019
set    atom 250  vx -2.65395853621 vy -0.783813923954 vz 0.239713740281
set    atom 251  vx 0.358831154749 vy -0.686159074831 vz -2.66753608842
set    atom 252  vx -0.412461645437 vy -2.39658536509 vz -1.34222830975
set    atom 253  vx -0.111834888695 vy 1.53448169833 vz 2.31261361489
set    atom 254  vx -0.928185077423 vy -1.98112687073 vz -1.71141217734
set    atom 255  vx 0.843387671922 vy 0.106825530403 vz 2.64435406054
set    atom 256  vx -0.258629662999 vy -0.0858908413245 vz 2.76424606672
set    atom 257  vx 1.60150679101 vy -2.23529510468 vz -0.392370551851
set    atom 258  vx 1.86691506442 vy 0.43562661696 vz 2.0100200122
set    atom 259  vx -0.379078542133 vy -0.284473369018 vz -2.73691381264
set    atom 260  vx 0.148305366585 vy 0.109616314266 vz 2.7715181108
set    atom 261  vx -0.477808730779 vy -1.61516040004 vz 2.20868253842
set    atom 262  vx -0.778885734127 vy 1.59455117405 vz 2.13683560976
set    atom 263  vx -1.11240205648 vy -0.737742852893 vz -2.43590229778
set    atom 264  vx 0.40929436192 vy -0.0134007111112 vz -2.74729346864
set    atom 265  vx -1.3813801939 vy 1.29505124124 vz -2.03222880087
set    atom 266  vx -1.87847955165 vy 0.447741939966 vz 1.99653815036
set    atom 267  vx 0.0306878174433 vy 0.820891393611 vz -2.65339752664
set    atom 268  vx 1.85995976586 vy 0.0260757834969 vz 2.06281181388
set    atom 269  vx -0.0892249744901 vy 0.0435244806154 vz -2.7758723638
set    atom 270  vx -0.68458577858 vy 2.67550779941 vz -0.297192166244
set    atom 271  vx 1.07784182963 vy 2.06328709435 vz -1.51539638814
set    atom 272  vx -0.422576167013 vy 1.89899202129 vz 1.98256942949
set    atom 273  vx 1.8025038233 vy -1.28792201481 vz 1.67557742506
set    atom 274  vx -0.172230718775 vy -0.697929025685 vz -2.68301220855
set    atom 275  vx -0.92447355943 vy -0.506021324272 vz 2.56994434062
set    atom 276  vx -1.44051355325 vy -0.375940042383 vz 2.34497604339
set    atom 277  vx 1.20375073672 vy -1.75181210957 vz 1.78814466787
set    atom 278  vx -2.64599817436 vy -0.458745221589 vz 0.70962619705
set    atom 279  vx 2.68646434969 vy -0.351088649495 vz -0.612347054089
set    atom 280  vx 0.60576019443 vy -0.840201411233 vz 2.57729296589
set    atom 281  vx 2.45825247739 vy 0.015358695593 vz 1.29308999087
set    atom 282  vx 1.27578534841 vy 0.670674621427 vz 2.37442417305
set    atom 283  vx -2.26908154555 vy 1.48726983045 vz -0.59549999806
set    atom 284  vx 0.965000755511 vy 0.392356617982 vz -2.57490828629
set    atom 285  vx -1.33545792348 vy -1.80762278171 vz -1.63229129455
set    atom 286  vx 1.50042296257 vy 2.29506949732 vz 0.443519776877
set    atom 287  vx 1.19785627661 vy -0.997310430715 vz 2.2990944091
set    atom 288  vx -2.23798214395 vy -1.64429576869 vz -0.055228661325
set    atom 289  vx 0.856022920389 vy 0.64957888794 vz 2.56136582407
set    atom 290  vx 1.49552195166 vy -2.33210859303 vz 0.200016146971
set    atom 291  vx 0.237497366026 vy 0.0787472390535 vz 2.76635441151
set    atom 292  vx 1.21842670871 vy -2.46431265636 vz 0.397394443593
set    atom 293  vx -1.18547459375 vy 1.99505919627 vz 1.52633929635
set    atom 294  vx -0.298679156972 vy 2.15901887737 vz 1.72184526162
set    atom 295  vx -0.701915115622 vy -1.67352987677 vz 2.10283993177
set    atom 296  vx 0.685796633525 vy 1.222103538 vz 2.39822200316
set    atom 297  vx -0.615035864102 vy 2.51503970926 vz -1.00579769503
set    atom 298  vx 0.756587905142 vy 0.936069153757 vz 2.50333220684
set    atom 299  vx 1.05582331101 vy 0.43069808833 vz -2.53279670508
set    atom 300  vx -1.22616781875 vy 1.61483812934 vz -1.89845546508
set    atom 301  vx -0.856321363874 vy 1.7749498515 vz 1.95744466155
set    atom 302  vx -1.4782959296 vy -0.475537954722 vz -2.30300405009
set    atom 303  vx 1.18553882684 vy -2.49100406113 vz 0.323603637327
set    atom 304  vx -0.241793358111 vy -2.23958688159 vz 1.62514904806
set    atom 305  vx 2.22925690107 vy -1.04436768151 vz -1.28648073108
set    atom 306  vx -0.436247461583 vy 2.67683593482 vz 0.599633543878
set    atom 307  vx 1.72101770075 vy 1.83159687594 vz 1.18265540813
set    atom 308  vx -0.188609086894 vy 2.29757980122 vz 1.5494762102
set    atom 309  vx -1.79170002581 vy -1.64667170887 vz 1.33925582221
set    atom 310  vx 1.03236938771 vy 1.75616937958 vz -1.88822811497
set    atom 311  vx 0.157720151473 vy -0.324198781358 vz -2.75415002507
set    atom 312  vx 0.444772569575 vy -1.23959039511 vz 2.44559110857
set    atom 313  vx 0.121948021384 vy 0.369535533044 vz -2.75025362949
set    atom 314  vx -0.441152474279 vy -0.327719707131 vz 2.72273890496
set    atom 315  vx -1.64234123247 vy -0.00811477754861 vz 2.24008309737
set    atom 316  vx 1.85315521066 vy 0.0412908415156 vz -2.06867921347
set    atom 317  vx -1.4197489926 vy -2.25828254893 vz 0.774464707925
set    atom 318  vx -1.52421067126 vy -0.400953367502 vz -2.28721251381
set    atom 319  vx -0.721076271359 vy 1.5764861868 vz 2.17026799504
set    atom 320  vx 0.870020369662 vy 0.694351939948 vz -2.5448502503
set    atom 321  vx 0.0726733399695 vy 0.391258312737 vz -2.74899224717
set    atom 322  vx -0.151819370144 vy -0.265347979086 vz -2.76077238929
set    atom 323  vx 2.27123130125 vy -0.0449362064419 vz -1.59837791845
set    atom 324  vx 0.963151719893 vy -0.881523966833 vz 2.45164783706
set    atom 325  vx 0.836591182322 vy 0.380220856345 vz -2.62123447075
set    atom 326  vx 0.123284686207 vy -0.0167109743479 vz 2.7748593633
set    atom 327  vx -2.37532793206 vy -0.423843443113 vz -1.37604389739
set    atom 328  vx 0.960204398132 vy 1.79345780062 vz 1.89125341713
set    atom 329  vx 0.198764990164 vy -0.0248494369068 vz -2.77041474166
set    atom 330  vx 2.05673630335 vy 1.62042084629 vz -0.927035552724
set    atom 331  vx -2.02098609405 vy -1.4752621959 vz -1.20604291698
set    atom 332  vx -0.0372631339309 vy 2.26268950998 vz -1.6106428831
set    atom 333  vx 0.0460989958209 vy -0.40282866996 vz 2.7478949765
set    atom 334  vx 2.29593660351 vy -1.48394196966 vz -0.491847740644
set    atom 335  vx -2.33492762722 vy 0.32077932793 vz 1.46987634004
set    atom 336  vx 1.28739574629 vy -1.52129950183 vz 1.93483406905
set    atom 337  vx -0.446509409719 vy -2.09364076469 vz 1.76992105815
set    atom 338  vx 0.0837720406926 vy 0.64854944689 vz -2.69957195065
set    atom 339  vx 1.75898172049 vy 0.721316358063 vz -2.02509478178
set    atom 340  vx -1.75902726209 vy 1.76620852907 vz -1.22541967491
set    atom 341  vx 0.804784579745 vy 1.08773860218 vz -2.42579252413
set    atom 342  vx -2.24983396478 vy -1.61200054975 vz -0.23457240919
set    atom 343  vx -1.49602226377 vy -1.09586748775 vz 2.06792521436
set    atom 344  vx -1.70274193642 vy 2.12240119333 vz 0.558037569628
set    atom 345  vx -1.01975202926 vy -0.578496367041 vz -2.51808868167
set    atom 346  vx 2.31735742035 vy -0.5087519554 vz 1.444419915
set    atom 347  vx -2.53542538393 vy 1.10396488031 vz 0.261156126069
set    atom 348  vx 0.318424961643 vy -0.0880068373824 vz -2.75793096306
set    atom 349  vx 0.0340649595484 vy 0.0234045344691 vz -2.77733949364
set    atom 350  vx 1.55992330695 vy 0.0126671069481 vz 2.29821706491
set    atom 351  vx 1.53913439704 vy -1.04344145138 vz 2.0633996467
set    atom 352  vx 0.685716867183 vy 0.839748116878 vz -2.55733031399
set    atom 353  vx 0.827863323558 vy -2.11182955056 vz -1.60316596879
set    atom 354  vx 1.21855074802 vy 2.4922069385 vz -0.139145631708
set    atom 355  vx -1.0844666159 vy -0.255766985662 vz 2.5443738453
set    atom 356  vx -0.00236385943307 vy 0.00403326076461 vz -2.77764306591
set    atom 357  vx 2.61226848896 vy 0.436100158562 vz -0.837372587271
set    atom 358  vx -2.74038020097 vy 0.0376265359323 vz -0.451910892277
set    atom 359  vx -1.34170717945 vy -1.27096734213 vz -2.07359270747
set    atom 360  vx -0.58310956212 vy 0.996201973267 vz -2.52643775376
set    atom 361  vx -0.673946643903 vy -0.280551305253 vz 2.68000181771
set    atom 362  vx -1.73705709083 vy -1.94739877216 vz 0.95162678715
set    atom 363  vx -0.243261829594 vy -2.73387252559 vz -0.426717181177
set    atom 364  vx 0.373683465842 vy 2.47596995685 vz 1.20218812869
set    atom 365  vx -0.00524525004969 vy 0.000386988260611 vz 2.77764202053
set    atom 366  vx 1.87159199672 vy -1.72676843661 vz -1.10938587551
set    atom 367  vx 0.442778439953 vy 0.757284990621 vz -2.63548658746
set    atom 368  vx -1.85005089548 vy -1.95633498505 vz 0.682193496744
set    atom 369  vx 0.0653664774379 vy 0.164560570465 vz -2.77199745651
set    atom 370  vx -0.629355978355 vy 0.340821400567 vz 2.68385444502
set    atom 371  vx -0.636108718189 vy -2.70216265531 vz -0.0948975210347
set    atom 372  vx -0.761125810108 vy 2.67072804874 vz 0.0567630817936
set    atom 373  vx -2.35446895239 vy -0.391700175781 vz -1.4206934156
set    atom 374  vx 0.208197078018 vy 0.913763082153 vz -2.61476841479
set    atom 375  vx -0.752008229603 vy 0.0773296024568 vz 2.672793784
set    atom 376  vx 0.11166224398 vy 0.191200289678 vz -2.76880783896
set    atom 377  vx -0.847335847736 vy -0.933893983714 vz 2.47491148224
set    atom 378  vx 0.137148046004 vy 0.668264526453 vz -2.69257048056
set    atom 379  vx -0.0371908716401 vy -0.0531039509438 vz 2.77689028701
set    atom 380  vx 1.01164508934 vy -0.347676942967 vz -2.56339965927
set    atom 381  vx -1.68062707575 vy -1.03927438113 vz -1.95210764293
set    atom 382  vx -1.65748262945 vy -1.76499723041 vz 1.36119762208
set    atom 383  vx -0.613044133859 vy -0.0353390387708 vz 2.7089206151
set    atom 384  vx -1.45478649995 vy -0.665481902097 vz -2.27069437269
set    atom 385  vx 0.705010925855 vy -1.56115751263 vz -2.18656572547
set    atom 386  vx 1.44243475539 vy 1.48390656186 vz -1.85276176254
set    atom 387  vx 1.25057046031 vy 0.318035970162 vz 2.45972549324
set    atom 388  vx 2.23403669146 vy -0.46480400549 vz 1.5837803365
set    atom 389  vx -0.606310567771 vy -0.22088468936 vz 2.7016514035
set    atom 390  vx 0.366628995166 vy -0.0274003335291 vz 2.75320817561
set    atom 391  vx 1.29923411206 vy -2.4550466572 vz -0.00771295263542
set    atom 392  vx -1.47140220179 vy -0.849732516613 vz -2.19732862071
set    atom 393  vx 1.55966895673 vy 0.255912863929 vz 2.2841331415
set    atom 394  vx -2.61750704278 vy -0.825852108995 vz 0.426553667997
set    atom 395  vx 1.62689053174 vy 0.505415997577 vz -2.19387892185
set    atom 396  vx 1.79297660846 vy 2.10980222094 vz 0.222018752877
set    atom 397  vx 2.43284324286 vy 1.20924836923 vz 0.5781997871
set    atom 398  vx -0.105599866402 vy -1.10950854977 vz -2.54424100722
set    atom 399  vx -0.66632165556 vy 0.828314693595 vz 2.56617089772
set    atom 400  vx -0.43900725257 vy 1.85738636187 vz 2.01809598175