#Run with: ~/Downloads/Current_LAMMPS_Build/LAMMPS_Files/build3/lmp -in non_relativistic_script_experimental.txt     


#Initialization

units           	metal
dimension       	3
atom_style      	sphere
pair_style      	lj/cut 3.816370964
#pair_style          lj/cut 6.0
boundary		    p p p
#use me for classical: (necessary for longer gr)
#comm_modify         mode single cutoff 13.0 vel yes #made the cutoff longer to accomodate a longer gr
#Use me for relativistic:
#(non modified cutoff) 

#System Definitions


#for 500 atoms, use 28.982 angstroms as box side to get the same density as Rahman. 
region          myreg block 0 28.982 0 28.982 0 28.982
create_box	    1 myreg
create_atoms	1 random 500 341341 myreg

#sampling the tracers alone for the diffusion calculation to avoid making 10GB files for little gain. 
#group           tracers id 100

#Simulation Settings


pair_coeff  	1 1 0.01034 3.4
neigh_modify	every 1 delay 5 check yes

set             type 1 mass 39.95
set             type 1 diameter 0

#set initial velocity spike to 0.000001096c to try and get Rahman Conditions from full cutoff.
#set initial velocity spike to 0.0000009c to try and get Rahman Conditions from 3....  cutoff. gives 90.87 
#set initial velocity spike to 0.00000093c to try and get Rahman Conditions from 3....  cutoff. gives 96.39
#set initial velocity spike to 0.000000915c to try and get Rahman Conditions from 3....  cutoff. gives 93.0635998915
#set initial velocity spike to 0.00000092c to try and get Rahman Conditions from 3....  cutoff. gives 93.4825392925
#set initial velocity spike to 0.000000925c to try and get Rahman Conditions from 3....  cutoff. gives 93.6158749159 
#set initial velocity spike to 0.000000928c to try and get Rahman Conditions from 3....  cutoff. gives 95.2815929214
#set initial velocity spike to 0.0000009265c to try and get Rahman Conditions from 3....  cutoff. gives 94.6603577863

set    atom 1  vx 101732.217156 vy -1126008.83359 vz 984253.860882
set    atom 2  vx 11221.1106356 vy -9149.48068239 vz -1498930.07631
set    atom 3  vx 1125446.11595 vy 790851.753538 vz -595756.279039
set    atom 4  vx -356806.73009 vy -1403367.21427 vz 387621.48968
set    atom 5  vx 47744.9811976 vy 1130866.08968 vz 982783.44714
set    atom 6  vx 199859.462108 vy -873822.52084 vz -1201453.86823
set    atom 7  vx 291420.051697 vy -1348744.47888 vz 585631.013665
set    atom 8  vx 38792.0659903 vy -1399308.70573 vz 536126.218065
set    atom 9  vx -244940.710065 vy -93183.1934228 vz -1475913.93415
set    atom 10  vx -1029185.99883 vy 118718.006978 vz -1083366.61137
set    atom 11  vx -828038.798751 vy 685515.310529 vz 1044711.20736
set    atom 12  vx -1279087.81633 vy 386385.822093 vz -679441.943519
set    atom 13  vx 789630.138496 vy -738130.084655 vz 1038580.38808
set    atom 14  vx -140232.43064 vy -153252.234154 vz -1484536.83623
set    atom 15  vx -761323.417097 vy -922316.836817 vz 903725.238722
set    atom 16  vx -1465842.19616 vy 305477.607152 vz 70647.6290393
set    atom 17  vx 804559.977939 vy -704198.293029 vz -1050613.63307
set    atom 18  vx -1349396.32512 vy 601791.564871 vz -252937.680492
set    atom 19  vx 774907.88227 vy 1255270.18533 vz 266111.885911
set    atom 20  vx 47807.3069859 vy 346068.586934 vz -1457721.50788
set    atom 21  vx -1057935.51563 vy 334933.550401 vz 1007766.32291
set    atom 22  vx 1317785.32314 vy -287735.051637 vz 653950.596122
set    atom 23  vx 332027.66057 vy 1100742.42529 vz -961834.053147
set    atom 24  vx 423513.256259 vy 727.505558208 vz -1437928.02063
set    atom 25  vx -538507.144563 vy 350480.516931 vz -1354316.97269
set    atom 26  vx 6242.44351365 vy -127235.766996 vz 1493577.28005
set    atom 27  vx -264195.676986 vy -522185.153829 vz 1380045.0389
set    atom 28  vx 1057085.31214 vy -955755.25799 vz -464869.3684
set    atom 29  vx 1463141.71292 vy 177428.25974 vz -273379.846678
set    atom 30  vx 468190.685067 vy -148637.376153 vz 1416229.29387
set    atom 31  vx -174757.486075 vy 138061.493657 vz -1482362.92622
set    atom 32  vx 110678.268065 vy 659.581688056 vz 1494908.32024
set    atom 33  vx 1454264.57424 vy -18629.8419572 vz 362999.279758
set    atom 34  vx 91218.0867703 vy 277539.780445 vz 1470255.73657
set    atom 35  vx 616064.887515 vy -816522.415052 vz -1095790.21719
set    atom 36  vx 1135234.48249 vy 762817.539736 vz 613476.218632
set    atom 37  vx -940253.480137 vy 896597.772158 vz -747687.654071
set    atom 38  vx -514239.309121 vy -1344731.13184 vz -417441.152763
set    atom 39  vx -1339789.07558 vy -631912.612799 vz 229461.723909
set    atom 40  vx -1200612.424 vy 743893.341055 vz 502148.886748
set    atom 41  vx 589558.129254 vy -588657.828065 vz 1246155.7582
set    atom 42  vx -1382913.01895 vy -542100.970283 vz 201690.6543
set    atom 43  vx -21672.0351342 vy 434460.447534 vz 1434494.83876
set    atom 44  vx -733489.799607 vy -423133.697829 vz 1236912.11799
set    atom 45  vx 272577.264663 vy -314723.758832 vz -1440017.91323
set    atom 46  vx -243054.903837 vy 274035.766753 vz 1453557.60542
set    atom 47  vx 3302.54002995 vy 160478.931059 vz 1490381.36258
set    atom 48  vx 1384904.20463 vy -426581.322672 vz 383496.700299
set    atom 49  vx -412080.168161 vy -121269.309292 vz -1436135.33124
set    atom 50  vx -678682.269527 vy 302581.625188 vz -1301858.57032
set    atom 51  vx 18904.9694947 vy -190967.117021 vz 1486665.78704
set    atom 52  vx 1386851.46479 vy -447077.21637 vz 351803.890265
set    atom 53  vx -903840.160651 vy -77385.416812 vz -1193350.51903
set    atom 54  vx 763905.952991 vy -728305.225264 vz 1064434.21302
set    atom 55  vx -562097.36996 vy -795288.956195 vz -1139545.09469
set    atom 56  vx 368901.089432 vy -1079857.35161 vz 972019.077169
set    atom 57  vx -1454164.45781 vy -148956.078608 vz -331992.19312
set    atom 58  vx -92126.8550998 vy -126880.277844 vz 1490776.65586
set    atom 59  vx -421746.542473 vy -3700.73205046 vz 1438442.61564
set    atom 60  vx -1480691.17609 vy -175377.705425 vz -154263.739999
set    atom 61  vx -839273.738766 vy -1224689.84806 vz -206773.710791
set    atom 62  vx 276585.287073 vy 1441292.34008 vz -305250.666485
set    atom 63  vx -144051.726982 vy 124571.601575 vz 1486853.05798
set    atom 64  vx 181708.362299 vy -278967.770927 vz -1461560.82797
set    atom 65  vx -1302003.66441 vy 721073.641709 vz -178438.395799
set    atom 66  vx -741925.367895 vy 1288906.12567 vz -187799.754232
set    atom 67  vx 38356.0751905 vy 1375016.35428 vz -595701.130564
set    atom 68  vx -734689.988684 vy -471025.288071 vz -1218756.25066
set    atom 69  vx -1087520.6741 vy -651512.357827 vz -799894.637433
set    atom 70  vx -1187653.43054 vy -295418.20823 vz -865568.259104
set    atom 71  vx -567496.3779 vy -517700.235178 vz 1287219.99968
set    atom 72  vx 762249.475656 vy 1263480.66083 vz -263805.527919
set    atom 73  vx 450229.433663 vy -1371054.34376 vz 405591.473681
set    atom 74  vx -738760.569509 vy -483857.268247 vz 1211245.62534
set    atom 75  vx 1261281.64548 vy -800806.859116 vz -121975.346602
set    atom 76  vx 1443658.11901 vy 36585.5169919 vz -401887.714874
set    atom 77  vx -1339605.05014 vy 441062.649175 vz -507861.249904
set    atom 78  vx -507066.357115 vy -245387.37115 vz 1389125.53341
set    atom 79  vx 693513.501816 vy -841455.604749 vz -1028587.61806
set    atom 80  vx -1025851.16759 vy 936356.424965 vz 563796.973548
set    atom 81  vx 14516.3657716 vy 75981.1502541 vz 1497002.71875
set    atom 82  vx -76149.4581708 vy -171091.817544 vz 1487255.81189
set    atom 83  vx -821815.701829 vy 1188616.00607 vz -398512.160857
set    atom 84  vx 61132.4763182 vy -447469.959186 vz -1429347.56304
set    atom 85  vx 1180411.77251 vy 549836.556499 vz 742501.72287
set    atom 86  vx -241838.156823 vy -1267075.68316 vz 763566.970898
set    atom 87  vx 776697.689644 vy 1217324.35862 vz -402322.14058
set    atom 88  vx 530882.146081 vy 1052991.6885 vz -925404.587693
set    atom 89  vx 344853.743892 vy -1450205.3201 vz -158055.132426
set    atom 90  vx 157958.916437 vy -762336.429456 vz -1280973.51614
set    atom 91  vx -15127.0568348 vy 166447.786975 vz -1489653.4182
set    atom 92  vx -1108805.55873 vy 386326.873071 vz 931827.655778
set    atom 93  vx -574692.32727 vy 1382311.36514 vz 77103.9478524
set    atom 94  vx -994972.692665 vy 506680.121423 vz -1000152.78603
set    atom 95  vx 672781.425684 vy -546975.550798 vz 1222777.12609
set    atom 96  vx 1356652.15189 vy 573669.497103 vz -278207.201314
set    atom 97  vx 1231679.63503 vy -851618.412643 vz 68646.6015654
set    atom 98  vx 380493.850663 vy 1043881.47015 vz 1006248.92839
set    atom 99  vx -926558.523157 vy 1134925.43751 vz 316914.112123
set    atom 100  vx 1415887.02573 vy 295633.638319 vz 393529.773039
set    atom 101  vx -732976.936416 vy -116651.872821 vz 1302358.68763
set    atom 102  vx 816368.319007 vy 402754.989722 vz 1190937.52396
set    atom 103  vx -70589.9430319 vy 1493032.25824 vz -113458.07942
set    atom 104  vx 1081052.5264 vy -858209.821296 vz 584638.638638
set    atom 105  vx -203566.961046 vy 824041.556189 vz 1235522.96864
set    atom 106  vx -533687.603317 vy 579990.508015 vz 1275064.52883
set    atom 107  vx -350431.088313 vy 498192.439874 vz -1369672.71463
set    atom 108  vx -1372701.89573 vy -88708.2833575 vz 595668.822342
set    atom 109  vx -1272370.76352 vy 783919.03526 vz 116381.211128
set    atom 110  vx -221486.839398 vy 409095.911325 vz 1424986.0053
set    atom 111  vx 761312.353907 vy -5136.30038838 vz -1291269.96333
set    atom 112  vx 274944.823862 vy -521923.465251 vz 1378042.90218
set    atom 113  vx 71649.0760444 vy 73832.0887786 vz -1495465.22279
set    atom 114  vx -55254.7039015 vy 93446.5817728 vz -1495063.76254
set    atom 115  vx 1377067.08169 vy 171948.232933 vz 566675.443011
set    atom 116  vx -699262.570703 vy 619343.771219 vz -1172367.75385
set    atom 117  vx 256598.830148 vy 302443.459302 vz -1445574.62426
set    atom 118  vx -897274.595581 vy -602553.833855 vz 1038666.53813
set    atom 119  vx -743240.775596 vy -399704.540981 vz -1238882.73433
set    atom 120  vx 208784.244311 vy 69220.4934044 vz 1482773.97557
set    atom 121  vx -415358.694699 vy -966796.038215 vz -1067606.47021
set    atom 122  vx 919598.291561 vy -1181340.56159 vz 75989.8658135
set    atom 123  vx -1073727.53987 vy -318775.554738 vz -996239.085673
set    atom 124  vx 241491.753631 vy 948677.633628 vz -1135206.36026
set    atom 125  vx 1036185.69733 vy -888311.816068 vz -619856.691571
set    atom 126  vx 1068366.91877 vy 354845.162624 vz -989786.864653
set    atom 127  vx -698856.544371 vy -590282.451989 vz -1187504.59252
set    atom 128  vx -451851.055621 vy 562209.284149 vz 1314059.49042
set    atom 129  vx -653499.947572 vy -666534.548368 vz 1172889.81339
set    atom 130  vx 618665.400481 vy 812871.536467 vz -1097038.73562
set    atom 131  vx -467687.037354 vy -994483.700736 vz -1019446.91086
set    atom 132  vx 55751.9977376 vy 308066.51892 vz 1465942.60961
set    atom 133  vx 420234.354916 vy 529979.004374 vz -1337731.78996
set    atom 134  vx 359642.059531 vy 153735.45474 vz 1447074.28938
set    atom 135  vx -452237.75516 vy -24776.4392713 vz 1428939.51617
set    atom 136  vx -925633.071084 vy -1158525.6008 vz 219141.164564
set    atom 137  vx -854822.822508 vy -661775.787087 vz 1038427.53707
set    atom 138  vx -250218.26099 vy 54617.0380487 vz 1476959.3092
set    atom 139  vx -1480899.16556 vy 177735.045893 vz -149495.534739
set    atom 140  vx 22285.7804337 vy 203962.680276 vz -1484891.77015
set    atom 141  vx -130642.962033 vy -1432954.72842 vz 420207.285477
set    atom 142  vx 1305507.87273 vy 706364.284385 vz -209044.712898
set    atom 143  vx 588479.013738 vy 510847.374281 vz -1280518.80524
set    atom 144  vx 345647.513356 vy -911774.935353 vz 1138505.7153
set    atom 145  vx -624821.862338 vy 1348632.03358 vz 194397.21797
set    atom 146  vx -784120.286877 vy -583529.295989 vz 1136507.78107
set    atom 147  vx -1382903.99152 vy 569618.203588 vz 100561.684465
set    atom 148  vx -590923.517357 vy -294767.580734 vz -1345705.19431
set    atom 149  vx -973841.133205 vy 849158.418912 vz -759976.596264
set    atom 150  vx -59278.8711931 vy -833955.494597 vz 1244188.59039
set    atom 151  vx 1111020.05375 vy -1003941.92948 vz -68818.9101301
set    atom 152  vx -839305.665357 vy -1121295.5264 vz -534100.498565
set    atom 153  vx -1005483.64552 vy -1020396.17758 vz 441356.181976
set    atom 154  vx 143803.972618 vy -349012.600653 vz 1450693.49693
set    atom 155  vx 1411595.1651 vy 339839.869959 vz 372704.913627
set    atom 156  vx -778332.60926 vy 734951.595098 vz 1049307.15342
set    atom 157  vx -40001.8149149 vy 34860.3505018 vz 1498060.61652
set    atom 158  vx 474876.241785 vy 1214737.85734 vz -738854.175683
set    atom 159  vx -234038.131388 vy 781876.449007 vz 1257337.0159
set    atom 160  vx -701764.799508 vy -518693.100365 vz -1218804.59213
set    atom 161  vx 554535.663484 vy -514267.97636 vz -1294225.5006
set    atom 162  vx -303915.455485 vy 1438407.68749 vz -292608.476453
set    atom 163  vx 1203862.92715 vy 622672.313963 vz -640307.927522
set    atom 164  vx -552744.106194 vy -271581.95943 vz 1366644.86696
set    atom 165  vx 401844.137972 vy 1015151.39482 vz -1027127.02932
set    atom 166  vx -1112520.7814 vy -369943.256498 vz 934045.233341
set    atom 167  vx 142519.786841 vy 597362.811659 vz -1367423.40978
set    atom 168  vx -1287462.22967 vy -766010.64427 vz 51669.1400123
set    atom 169  vx -151911.230181 vy -30066.1754589 vz -1490979.54488
set    atom 170  vx 445482.094708 vy 1297384.94959 vz 604432.788546
set    atom 171  vx 35258.8712309 vy -177278.153502 vz -1488062.58884
set    atom 172  vx -422204.311671 vy 717867.721225 vz 1246358.87851
set    atom 173  vx -957674.50941 vy 1129682.75675 vz 231683.843039
set    atom 174  vx -721616.419393 vy 390608.31053 vz -1254470.36275
set    atom 175  vx 40849.404302 vy 1301595.33883 vz -742416.257981
set    atom 176  vx 606548.880109 vy 1022839.1712 vz -912633.270214
set    atom 177  vx -451479.06495 vy -134688.248302 vz 1423034.3389
set    atom 178  vx -603645.111236 vy -717099.375494 vz 1169778.63946
set    atom 179  vx -67884.4312194 vy 1459468.99354 vz -335176.014796
set    atom 180  vx 1267993.1753 vy -102797.739813 vz 792859.970038
set    atom 181  vx -1003214.95037 vy 88215.6437748 vz -1110305.70725
set    atom 182  vx 492942.693342 vy -693183.183859 vz 1234303.68009
set    atom 183  vx -411613.248416 vy 1019467.03287 vz -1018951.66844
set    atom 184  vx -1143182.319 vy 120591.60706 vz 962077.361661
set    atom 185  vx -65546.0776829 vy 67589.0125651 vz 1496040.25249
set    atom 186  vx 908986.44928 vy 630664.78241 vz 1011437.87118
set    atom 187  vx 1134032.00466 vy -257203.593497 vz 945948.584169
set    atom 188  vx -770010.423506 vy 1206471.97184 vz -445544.979615
set    atom 189  vx -432431.496224 vy -1319495.59689 vz -564743.632856
set    atom 190  vx 700206.29344 vy 916544.563285 vz -957422.691469
set    atom 191  vx -403518.092786 vy 131535.406636 vz 1437662.19454
set    atom 192  vx -313905.290116 vy 471038.97239 vz -1388015.40169
set    atom 193  vx -587821.810696 vy -1191919.37268 vz -693393.631273
set    atom 194  vx -345008.762015 vy 221080.047934 vz 1441906.22668
set    atom 195  vx 468025.929735 vy -187877.094085 vz -1411614.2981
set    atom 196  vx 1176065.43211 vy 172595.880991 vz -913280.76804
set    atom 197  vx 34130.7458485 vy -29994.4041226 vz 1498311.19195
set    atom 198  vx -808162.364158 vy 110732.975519 vz 1257621.88327
set    atom 199  vx 1416199.48323 vy -489863.853553 vz -37595.5940638
set    atom 200  vx -593049.507174 vy 292831.256455 vz 1345192.6023
set    atom 201  vx 465343.492524 vy 729744.525171 vz 1223899.24502
set    atom 202  vx 116145.500853 vy 130532.856268 vz -1488782.18557
set    atom 203  vx 42802.2401292 vy -11729.0562517 vz 1498342.88382
set    atom 204  vx -933934.570274 vy -698464.46072 vz -941761.44302
set    atom 205  vx 1245171.36314 vy 815681.982485 vz 176669.691441
set    atom 206  vx -322646.792989 vy -749532.569673 vz -1257418.37666
set    atom 207  vx -82576.1485597 vy 81596.2153489 vz -1494497.9884
set    atom 208  vx -141795.144371 vy -483526.734027 vz 1411770.88598
set    atom 209  vx 550655.505326 vy -1388811.3787 vz -122402.895611
set    atom 210  vx -16373.847952 vy 15136.4869147 vz 1498834.14155
set    atom 211  vx -1010065.30187 vy 173733.423712 vz -1093885.63545
set    atom 212  vx -1161137.1687 vy 904526.709693 vz -283888.898882
set    atom 213  vx -614302.699178 vy 552097.346639 vz -1250928.34072
set    atom 214  vx -54058.1104785 vy 176297.542971 vz -1487614.83491
set    atom 215  vx 728182.217743 vy -365719.419942 vz 1258173.66196
set    atom 216  vx 664102.075477 vy 432194.395875 vz 1272469.03205
set    atom 217  vx 230766.007875 vy -465739.128566 vz -1405999.68483
set    atom 218  vx -64476.6168835 vy -169999.545103 vz -1487932.76748
set    atom 219  vx -174501.209804 vy -15491.6375448 vz -1488727.75783
set    atom 220  vx 1388975.5095 vy -406083.054002 vz 390953.433607
set    atom 221  vx 1498535.83368 vy -34068.9065343 vz -15187.652369
set    atom 222  vx -946376.62924 vy -820650.46237 vz -823349.922112
set    atom 223  vx -967190.026994 vy -1125897.16824 vz 209523.311909
set    atom 224  vx -799944.167527 vy -875454.259741 vz -916880.672684
set    atom 225  vx 631649.775299 vy 1295095.40838 vz -413215.978107
set    atom 226  vx -201462.386496 vy -23032.6480168 vz 1485221.66829
set    atom 227  vx 56063.5156073 vy 408535.775259 vz 1441164.94634
set    atom 228  vx -159141.335277 vy 177126.641033 vz -1479966.61734
set    atom 229  vx -909217.295322 vy -583804.020377 vz -1038988.82365
set    atom 230  vx 951070.445069 vy 384803.479772 vz 1092882.56024
set    atom 231  vx -175340.705579 vy 1340488.52283 vz -647570.194752
set    atom 232  vx 1182350.46891 vy 119443.445057 vz -913663.850715
set    atom 233  vx -818993.433614 vy 953258.546088 vz -817036.657689
set    atom 234  vx 213977.025154 vy 154572.640205 vz -1475575.1867
set    atom 235  vx 555910.257881 vy -1268125.97551 vz 574300.701216
set    atom 236  vx 521092.136657 vy 968937.307319 vz -1018147.5726
set    atom 237  vx 264319.2282 vy 103490.208144 vz 1471878.4333
set    atom 238  vx -875769.222522 vy 1213453.12761 vz 86952.7226569
set    atom 239  vx 398255.198897 vy 1403712.60526 vz 343489.036775
set    atom 240  vx -840039.908884 vy 1011796.80388 vz 719445.049428
set    atom 241  vx -90649.6865076 vy -294130.499023 vz 1467061.99047
set    atom 242  vx -126479.570913 vy -35683.3644035 vz -1493228.25303
set    atom 243  vx 1109089.43245 vy -454398.264972 vz -900246.548238
set    atom 244  vx 318042.560508 vy 400040.163225 vz 1409190.47595
set    atom 245  vx 1006643.41533 vy -576284.450506 vz -949508.434128
set    atom 246  vx 499306.765658 vy -701959.607111 vz -1226762.5947
set    atom 247  vx 709715.17433 vy -1310967.60921 vz 157064.632956
set    atom 248  vx 166518.941193 vy 71095.9390975 vz 1488024.80143
set    atom 249  vx 636720.425132 vy -1219116.0792 vz -596107.444715
set    atom 250  vx -1323394.02148 vy -42263.8735914 vz 702739.659406
set    atom 251  vx -371139.602564 vy 1441398.21287 vz -177841.466864
set    atom 252  vx -1083586.60953 vy -31228.422429 vz -1035309.5408
set    atom 253  vx 438669.535449 vy 369603.199526 vz 1384905.59735
set    atom 254  vx -64331.8610045 vy -169864.859873 vz 1487954.41497
set    atom 255  vx 403501.327429 vy -954321.22715 vz -1083262.97554
set    atom 256  vx 94518.9814313 vy -295182.058415 vz -1466606.53024
set    atom 257  vx 1299205.02964 vy 622831.186705 vz -413701.104464
set    atom 258  vx -381837.248253 vy -346932.777891 vz 1407422.80906
set    atom 259  vx -359188.628041 vy -858914.649098 vz -1174840.48068
set    atom 260  vx -300974.589441 vy -1466707.53963 vz 72002.0117164
set    atom 261  vx -206664.498412 vy -827049.338966 vz 1232996.42174
set    atom 262  vx -1015692.85148 vy -484243.345504 vz 990392.555401
set    atom 263  vx -57308.456977 vy -138362.709733 vz 1491500.08425
set    atom 264  vx 193788.591668 vy -74523.4924098 vz 1484551.52515
set    atom 265  vx -609075.637297 vy 288298.225574 vz 1338996.63972
set    atom 266  vx 692946.762006 vy -604908.832712 vz -1183600.89943
set    atom 267  vx 1334923.52413 vy 197698.544983 vz -652606.673304
set    atom 268  vx 1383802.19467 vy -177345.437052 vz -548307.470304
set    atom 269  vx 103356.767194 vy -170226.035007 vz 1485712.44717
set    atom 270  vx 29931.4438681 vy -9041.869182 vz 1498673.86488
set    atom 271  vx -579959.709913 vy 647380.579016 vz -1221288.71312
set    atom 272  vx -1433465.29622 vy 318905.364524 vz -300794.968377
set    atom 273  vx 287875.531874 vy -1150326.421 vz 916993.894911
set    atom 274  vx 1043714.26781 vy -657232.654282 vz 851884.244077
set    atom 275  vx -952279.93035 vy -1110061.47336 vz -328523.149282
set    atom 276  vx 1404562.3727 vy -327680.119228 vz -408449.850834
set    atom 277  vx -649649.495951 vy 1332885.77652 vz -219936.443461
set    atom 278  vx 1196885.97524 vy 678016.977723 vz 595615.597676
set    atom 279  vx -705648.664012 vy 424083.627104 vz 1252682.73725
set    atom 280  vx 1117180.87202 vy 930527.594166 vz -364727.700739
set    atom 281  vx 1254032.20484 vy -383934.203393 vz -725946.800181
set    atom 282  vx 1492647.16955 vy 97570.2715125 vz -97393.3742064
set    atom 283  vx 1466972.03279 vy 152858.08965 vz 267634.936862
set    atom 284  vx 352717.207118 vy 1341471.80148 vz -568370.458102
set    atom 285  vx -341515.461611 vy 431329.393083 vz -1394389.8824
set    atom 286  vx 871172.954807 vy -1130322.57851 vz -458726.008991
set    atom 287  vx -1030211.76603 vy 125660.491937 vz 1081607.21054
set    atom 288  vx 746058.552242 vy -781490.450005 vz -1039071.85179
set    atom 289  vx 392997.164419 vy -316591.179892 vz 1411497.1674
set    atom 290  vx 252655.629005 vy -444386.313903 vz 1409144.04414
set    atom 291  vx 26653.6597863 vy -1353158.39853 vz 644401.218896
set    atom 292  vx -118037.096173 vy 22598.7625771 vz -1494174.5346
set    atom 293  vx 997534.275199 vy 539270.61314 vz -980364.001587
set    atom 294  vx -1120680.34224 vy -994340.748554 vz 48611.1744362
set    atom 295  vx -1024040.5772 vy 933323.343638 vz 572057.193358
set    atom 296  vx -6269.63404927 vy 3113.43815318 vz 1498983.65508
set    atom 297  vx -88712.2294994 vy 1231386.49829 vz 850187.292405
set    atom 298  vx -92828.4728267 vy 105581.01853 vz -1492392.88499
set    atom 299  vx -699352.029438 vy 165687.075613 vz -1315467.79964
set    atom 300  vx 196317.703269 vy 94676.3510936 vz -1483070.04148
set    atom 301  vx -123914.6104 vy -1195077.70395 vz -896345.609037
set    atom 302  vx 403132.854186 vy -1323635.11003 vz -576606.449294
set    atom 303  vx -95798.0446705 vy 4066.16743297 vz -1495930.21258
set    atom 304  vx -31332.091263 vy -1106425.38893 vz 1010862.08693
set    atom 305  vx 29282.9381724 vy -1031027.53158 vz 1087715.83544
set    atom 306  vx 435176.077621 vy 1220064.18806 vz -754364.73836
set    atom 307  vx 1302508.67147 vy 679745.552418 vz 297351.887021
set    atom 308  vx 350259.504444 vy -955564.336475 vz 1100552.6241
set    atom 309  vx -367395.104688 vy -1378339.73229 vz -460653.25294
set    atom 310  vx -539424.172195 vy 421125.219162 vz 1333670.16621
set    atom 311  vx -644644.809927 vy 1148888.87285 vz 715184.190874
set    atom 312  vx 1102012.78575 vy 265772.033461 vz 980782.364377
set    atom 313  vx -624245.984079 vy -1023000.77993 vz -900437.313541
set    atom 314  vx -1338491.02429 vy -562157.599183 vz 373392.03468
set    atom 315  vx -12676.7016033 vy -541264.180056 vz 1397810.21195
set    atom 316  vx 939716.450593 vy -60758.3021955 vz 1166294.31157
set    atom 317  vx 102858.672246 vy 24874.4193658 vz 1495259.96295
set    atom 318  vx 1254083.72743 vy -402800.296463 vz -715560.567509
set    atom 319  vx -109537.887546 vy -345196.315115 vz 1454593.39859
set    atom 320  vx -860762.316401 vy -153067.976486 vz 1217645.03417
set    atom 321  vx -1118814.24101 vy 897127.433119 vz -436369.18184
set    atom 322  vx -365182.09966 vy 142248.549647 vz -1446861.5636
set    atom 323  vx 169334.779134 vy -29342.0251777 vz -1489115.77056
set    atom 324  vx -383662.71522 vy 63931.1102086 vz 1447659.05313
set    atom 325  vx 1393619.66817 vy 457920.575322 vz 308437.947043
set    atom 326  vx 1401786.88859 vy -372042.202087 vz -378918.353813
set    atom 327  vx -512851.52415 vy 1243970.64091 vz 660697.630334
set    atom 328  vx -320417.364841 vy 5983.18597145 vz -1464342.14369
set    atom 329  vx 289367.71278 vy -1364451.2861 vz 549126.592569
set    atom 330  vx 119851.673218 vy 163047.670582 vz 1485278.43637
set    atom 331  vx 1437262.94207 vy -122357.095969 vz 407805.071581
set    atom 332  vx -568612.463186 vy -315154.912152 vz -1350688.06468
set    atom 333  vx 577939.59523 vy -1252131.70062 vz -587497.258342
set    atom 334  vx -1411077.28341 vy -168373.638944 vz 476982.408446
set    atom 335  vx 1061019.39531 vy 967262.156527 vz -430862.812657
set    atom 336  vx -65503.0721059 vy -133981.826603 vz 1491562.67642
set    atom 337  vx -640776.171429 vy -1219309.60926 vz 591346.746751
set    atom 338  vx -88673.42042 vy -1493838.27057 vz 87093.3171664
set    atom 339  vx -40284.3458648 vy 721913.197239 vz -1313095.39148
set    atom 340  vx 951993.537925 vy 786039.531684 vz 850206.538659
set    atom 341  vx 1333427.2634 vy -14204.627126 vz -684668.505044
set    atom 342  vx -858012.702172 vy 1015227.09032 vz 692913.528517
set    atom 343  vx -1075348.73979 vy 934278.132251 vz 466637.396095
set    atom 344  vx -388459.127855 vy -1395531.71456 vz 385475.990997
set    atom 345  vx -988774.51421 vy 817148.797139 vz 775624.7826
set    atom 346  vx -1178928.77671 vy 925788.450313 vz 6609.44026821
set    atom 347  vx 408678.131371 vy -498319.198759 vz 1353388.76938
set    atom 348  vx 102585.807361 vy 380998.567305 vz -1446138.73603
set    atom 349  vx 1485929.37518 vy -196710.27933 vz 17887.3692994
set    atom 350  vx -1092121.9305 vy -319117.838392 vz -975927.504556
set    atom 351  vx -578528.823029 vy 950005.163423 vz 1004885.85939
set    atom 352  vx -979145.68944 vy -462863.417884 vz 1036355.23602
set    atom 353  vx -1227785.22085 vy -825599.897365 vz 240684.982753
set    atom 354  vx -1489003.41507 vy -45926.6085444 vz -166615.054937
set    atom 355  vx 1312800.25015 vy -721516.841992 vz -54497.2470447
set    atom 356  vx 1015668.41748 vy -1099483.60002 vz -80959.7369854
set    atom 357  vx -281490.044886 vy -1308503.50622 vz 674968.835462
set    atom 358  vx -815486.472433 vy -103236.870396 vz -1253525.01446
set    atom 359  vx -900137.000799 vy -477850.465536 vz 1099278.54176
set    atom 360  vx 55611.0313382 vy -40029.8969913 vz -1497433.14393
set    atom 361  vx -1359072.26319 vy 507760.05663 vz -376965.924603
set    atom 362  vx 321062.220288 vy 1461251.65829 vz -93078.6862741
set    atom 363  vx 599804.980796 vy 15909.5925476 vz 1373674.5866
set    atom 364  vx 1065065.01133 vy -682835.876272 vz 803973.064043
set    atom 365  vx 506786.329359 vy 223725.525306 vz 1392880.29123
set    atom 366  vx 401544.030041 vy -1444201.4059 vz 6759.52192856
set    atom 367  vx 1067122.57667 vy 1007662.59715 vz -304740.047684
set    atom 368  vx -755475.737504 vy 298150.118486 vz -1259906.31274
set    atom 369  vx -783554.455649 vy -1041436.5314 vz 740576.374257
set    atom 370  vx 351399.556156 vy -240062.290869 vz -1437320.23169
set    atom 371  vx -744671.618683 vy 735051.987853 vz 1073388.91157
set    atom 372  vx 117661.353327 vy 906983.824291 vz -1187660.36745
set    atom 373  vx -809864.472216 vy -302913.592185 vz -1224485.15398
set    atom 374  vx -906462.89174 vy 1100408.78565 vz -463062.123664
set    atom 375  vx -122302.180843 vy -1493993.16105 vz 5254.64575981
set    atom 376  vx 660779.482127 vy 1344685.08662 vz 46834.7500479
set    atom 377  vx 543650.644165 vy 634138.366303 vz 1244714.22804
set    atom 378  vx 1114810.22236 vy -781428.619389 vz 627350.365366
set    atom 379  vx -137647.303519 vy -1314013.50105 vz 708112.094868
set    atom 380  vx 1114166.63122 vy -988391.982046 vz 169455.03151
set    atom 381  vx -681099.625397 vy -306092.543894 vz 1299773.69371
set    atom 382  vx -451991.997259 vy -998116.99248 vz -1022969.55172
set    atom 383  vx 1066217.46784 vy 1050888.38291 vz -76255.6092475
set    atom 384  vx -436289.603525 vy 41676.6166308 vz 1433497.62521
set    atom 385  vx 200803.57426 vy 53891.3482281 vz 1484511.58539
set    atom 386  vx -602484.309761 vy -69063.6030764 vz -1370855.16201
set    atom 387  vx -498363.777202 vy 45276.1763726 vz -1413005.52491
set    atom 388  vx 469610.799351 vy -753463.837111 vz 1207790.93526
set    atom 389  vx -392662.244642 vy -1429441.60334 vz 222517.559466
set    atom 390  vx -1269190.78622 vy 771352.479728 vz 202906.629241
set    atom 391  vx 245945.418805 vy -181370.078164 vz 1467520.61168
set    atom 392  vx -1134909.40519 vy -973254.130109 vz 108434.497484
set    atom 393  vx 979460.585563 vy -657742.699897 vz 924679.67538
set    atom 394  vx -604374.125353 vy -380443.995187 vz 1317951.16872
set    atom 395  vx 933614.149775 vy -177653.016993 vz 1159226.04564
set    atom 396  vx -24448.8543674 vy 5687.99274591 vz -1498789.8119
set    atom 397  vx 1305553.79538 vy 172271.960225 vz 716137.318604
set    atom 398  vx -752357.744011 vy 1136035.98584 vz 624804.820655
set    atom 399  vx -1109658.38762 vy -193605.294918 vz 989027.93316
set    atom 400  vx -80196.1032026 vy -462110.780768 vz 1423735.6536
set    atom 401  vx 714700.198534 vy 426109.029445 vz 1246850.3203
set    atom 402  vx 6482.43298565 vy 244157.127796 vz 1478967.97633
set    atom 403  vx -1120198.70996 vy 975370.567743 vz -202010.162571
set    atom 404  vx 670424.548432 vy 681395.948078 vz 1154656.4367
set    atom 405  vx 1200544.6096 vy -83322.4147765 vz 893728.714738
set    atom 406  vx -967452.964977 vy 1131943.59631 vz -172451.312905
set    atom 407  vx 551370.454388 vy -1345409.8414 vz 364505.117528