#Run with: ~/Downloads/Current_LAMMPS_Build/LAMMPS_Files/build3/lmp -in Argon_0_1c_Script.txt     


#Initialization

units           	metal
dimension       	3
atom_style      	sphere
pair_style      	lj/cut 3.816370964
#pair_style          lj/cut 6.0
boundary		    p p p
#use me for classical: (necessary for longer gr)
#comm_modify         mode single cutoff 13.0 vel yes #made the cutoff longer to accomodate a longer gr
#Use me for relativistic:
#(non modified cutoff) 

#System Definitions


#for 500 atoms, use 28.982 angstroms as box side to get the same density as Rahman. 
region          myreg block 0 28.982 0 28.982 0 28.982
create_box	    1 myreg
create_atoms	1 random 500 341341 myreg

#sampling the tracers alone for the diffusion calculation to avoid making 10GB files for little gain. 
#group           tracers id 100

#Simulation Settings


pair_coeff  	1 1 0.01034 3.4
neigh_modify	every 1 delay 5 check yes

set             type 1 mass 39.95
set             type 1 diameter 0

#set initial velocity spike to 0.000001096c to try and get Rahman Conditions from full cutoff.
#set initial velocity spike to 0.0000009c to try and get Rahman Conditions from 3....  cutoff. gives 90.87 
#set initial velocity spike to 0.00000093c to try and get Rahman Conditions from 3....  cutoff. gives 96.39
#set initial velocity spike to 0.000000915c to try and get Rahman Conditions from 3....  cutoff. gives 93.0635998915
#set initial velocity spike to 0.00000092c to try and get Rahman Conditions from 3....  cutoff. gives 93.4825392925
#set initial velocity spike to 0.000000925c to try and get Rahman Conditions from 3....  cutoff. gives 93.6158749159 
#set initial velocity spike to 0.000000928c to try and get Rahman Conditions from 3....  cutoff. gives 95.2815929214
#set initial velocity spike to 0.0000009265c to try and get Rahman Conditions from 3....  cutoff. gives 94.6603577863

set    atom 1  vx 5426.17452752 vy 12553.3500824 vz 299487.912998
set    atom 2  vx 623.554347116 vy -795.931850018 vz -299798.294979
set    atom 3  vx -177189.802656 vy -104396.461356 vz 218140.305058
set    atom 4  vx 22103.9183542 vy 44005.8678909 vz -295727.814695
set    atom 5  vx 162218.632484 vy -248604.831355 vz 41961.8052753
set    atom 6  vx -62067.2165144 vy 14195.9834048 vz 292961.046368
set    atom 7  vx 137907.483082 vy -208202.925822 vz 165870.75628
set    atom 8  vx -77393.2404304 vy -211844.722255 vz 197514.910801
set    atom 9  vx -140148.797285 vy 20414.7401975 vz 264237.758472
set    atom 10  vx 37063.988232 vy 257079.13837 vz -149721.799987
set    atom 11  vx 34423.5469049 vy -3365.82844863 vz -297798.137364
set    atom 12  vx -206107.464294 vy 111689.108704 vz -186883.108277
set    atom 13  vx 102696.229108 vy 895.047366024 vz 281660.652944
set    atom 14  vx 244525.732391 vy -82549.8245091 vz 152554.031976
set    atom 15  vx -162515.416744 vy -3079.30896981 vz -251911.288307
set    atom 16  vx -186054.434631 vy 233978.167142 vz -22759.7156214
set    atom 17  vx -179223.056079 vy -213174.324487 vz -110976.770314
set    atom 18  vx -290098.56072 vy -56260.0899813 vz 50573.3857213
set    atom 19  vx -277095.076218 vy 63365.3263476 vz -95305.7928598
set    atom 20  vx -117781.543939 vy 34181.8512024 vz -273567.44864
set    atom 21  vx -90963.9031293 vy 208070.512802 vz -195735.20386
set    atom 22  vx 68621.4285497 vy -267721.956636 vz -116172.688179
set    atom 23  vx -28887.58232 vy 298113.072561 vz 13196.3463099
set    atom 24  vx -34337.1059727 vy -11705.4701846 vz 297597.017998
set    atom 25  vx 157540.292474 vy 137482.345582 vz -214848.087961
set    atom 26  vx 173228.587675 vy 242202.449822 vz -34783.181462
set    atom 27  vx 61462.0111283 vy 286302.803798 vz -64289.7015497
set    atom 28  vx -77901.7406787 vy 86622.3502202 vz 276238.895237
set    atom 29  vx -178772.76146 vy 240577.883722 vz -6528.52386199
set    atom 30  vx -182953.411704 vy 221911.664255 vz 84636.2948942
set    atom 31  vx -53517.4159196 vy 284756.631699 vz 77003.8109216
set    atom 32  vx 2327.43300552 vy 2188.65583676 vz 299782.976237
set    atom 33  vx 298335.870392 vy 6904.87365295 vz 28776.2255541
set    atom 34  vx 85620.9620361 vy 285636.462482 vz 30998.4219105
set    atom 35  vx -3262.24981516 vy -80741.6560434 vz 288704.317088
set    atom 36  vx 14848.5887787 vy 266644.490664 vz -136236.100244
set    atom 37  vx 220287.157612 vy -174733.777785 vz -104027.472776
set    atom 38  vx -236992.501158 vy -119899.828198 vz -139063.386961
set    atom 39  vx -94515.6681544 vy 181423.991133 vz 219162.414467
set    atom 40  vx -199536.794849 vy -185306.079246 vz -125406.39735
set    atom 41  vx -176859.341594 vy 187833.659296 vz -152706.678722
set    atom 42  vx -280668.33587 vy -47113.0307842 vz -94263.9250739
set    atom 43  vx 299134.126549 vy 1524.0238398 vz -19912.0989646
set    atom 44  vx -253808.719332 vy 157348.712883 vz -26505.783235
set    atom 45  vx -214224.717951 vy 192172.803563 vz 84008.4745102
set    atom 46  vx 3126.63005004 vy 822.6340939 vz 299782.566968
set    atom 47  vx 110427.395789 vy 135542.692105 vz 243544.675319
set    atom 48  vx -54397.7250948 vy 266976.096168 vz -125078.741517
set    atom 49  vx 193488.391571 vy -89438.6957259 vz -210815.089673
set    atom 50  vx 246147.368735 vy -170440.22411 vz -15544.8663543
set    atom 51  vx -188017.323002 vy 74936.8947336 vz -221165.069708
set    atom 52  vx -285157.341878 vy -64307.6908044 vz -66557.1279144
set    atom 53  vx -12006.835751 vy 288688.824021 vz -79966.4853576
set    atom 54  vx -210450.550999 vy 32798.8690149 vz -210985.401807
set    atom 55  vx -295169.948512 vy -40425.0652957 vz -33474.7007614
set    atom 56  vx 108310.567923 vy -182752.285802 vz -211543.052144
set    atom 57  vx -154367.754109 vy 104446.844931 vz 234822.258475
set    atom 58  vx -252879.448684 vy 44044.144624 vz 154893.956491
set    atom 59  vx 184322.414512 vy 181487.620346 vz 151550.424512
set    atom 60  vx 8854.54182943 vy -39415.2307292 vz 297065.778365
set    atom 61  vx 247431.355679 vy 9231.54357916 vz 169034.146935
set    atom 62  vx 288968.296968 vy -22305.8008919 vz -76679.9491017
set    atom 63  vx -188603.144545 vy -156999.557304 vz -172220.883966
set    atom 64  vx -97204.7521399 vy 134429.360024 vz 249719.889727
set    atom 65  vx 245742.00238 vy 170254.783563 vz -22454.7754429
set    atom 66  vx -7577.56759269 vy 36804.7616773 vz -297435.757748
set    atom 67  vx -59310.5565728 vy 257083.302175 vz 142374.413508
set    atom 68  vx 262774.733895 vy 2239.56022967 vz -144306.838357
set    atom 69  vx -256258.6397 vy 149208.613821 vz 44139.9947964
set    atom 70  vx -161409.92265 vy -176986.312395 vz -180285.113348
set    atom 71  vx -205457.286935 vy -75326.8966694 vz -204922.428942
set    atom 72  vx -165474.342852 vy 14821.8793251 vz -249556.79464
set    atom 73  vx 29081.1248429 vy 31338.9249902 vz 296735.909452
set    atom 74  vx 34273.1354584 vy 292286.037192 vz 57221.1905539
set    atom 75  vx -184985.568406 vy -181173.629777 vz 151117.488581
set    atom 76  vx -78496.241247 vy 95432.1585705 vz 273150.294198
set    atom 77  vx 91638.1128939 vy -7088.10858518 vz 285363.373582
set    atom 78  vx 183360.997049 vy -87397.754128 vz 220500.379443
set    atom 79  vx -118734.706015 vy -34264.0862642 vz 273144.80039
set    atom 80  vx -22204.6338041 vy 1104.22356891 vz 298974.538929
set    atom 81  vx 198670.641645 vy 113993.538555 vz 193430.838586
set    atom 82  vx 259187.611079 vy -120811.188338 vz -90035.9874463
set    atom 83  vx 172633.749265 vy 23355.7301406 vz -243992.086929
set    atom 84  vx 288189.166438 vy 65627.6222849 vz -50200.194629
set    atom 85  vx -146286.622477 vy -190771.579387 vz 179126.962187
set    atom 86  vx -119171.644453 vy 222261.758574 vz -162104.502818
set    atom 87  vx -170089.408052 vy -63050.6213352 vz -238692.799259
set    atom 88  vx 61632.6123296 vy -6993.33283614 vz 293313.0655
set    atom 89  vx -162117.842203 vy -28108.6024799 vz 250614.747583
set    atom 90  vx 6471.69821073 vy 13292.1634879 vz 299435.26097
set    atom 91  vx -17826.208749 vy -273171.034744 vz 122228.687543
set    atom 92  vx 192590.841847 vy -183471.715971 vz 138300.170192
set    atom 93  vx 120210.553871 vy -63599.4779044 vz -267178.908502
set    atom 94  vx -156203.592521 vy 249690.034765 vz -55994.3231289
set    atom 95  vx -196349.646557 vy 48678.1403112 vz -221262.954316
set    atom 96  vx 88539.7797825 vy -278670.942451 vz 66206.1419331
set    atom 97  vx -186033.534613 vy 43321.2262106 vz 231073.225102
set    atom 98  vx -34951.829829 vy 59802.1676354 vz -291688.378818
set    atom 99  vx 174535.995755 vy -140235.708341 vz -199376.960283
set    atom 100  vx -84111.0807071 vy 167483.534634 vz -233997.076325
set    atom 101  vx -49322.5918565 vy 104719.029093 vz 276552.430614
set    atom 102  vx -292937.386215 vy 29247.5570894 vz -56677.2278926
set    atom 103  vx -281097.091097 vy -77709.1841769 vz -69467.6044751
set    atom 104  vx -155158.691311 vy 48414.6893562 vz -251916.332073
set    atom 105  vx 186212.59562 vy -108365.723433 vz -208474.888697
set    atom 106  vx 222059.545639 vy 194172.617834 vz -53540.570357
set    atom 107  vx 219023.00142 vy -194454.168468 vz -64004.2281005
set    atom 108  vx -129056.122875 vy -34157.0582311 vz -268435.937462
set    atom 109  vx -171960.739933 vy 76352.5382199 vz 233409.15541
set    atom 110  vx 294349.214333 vy -30064.4191579 vz 48318.8443817
set    atom 111  vx -165102.446926 vy 174757.991913 vz 179111.323711
set    atom 112  vx 28047.8203346 vy 143825.701388 vz -261548.327073
set    atom 113  vx 12404.9773454 vy -208755.636912 vz 214819.088059
set    atom 114  vx 8861.85349479 vy -295657.840771 vz 48866.6424391
set    atom 115  vx 212566.877084 vy -116653.939474 vz 176315.68612
set    atom 116  vx -22590.4575467 vy -236550.634053 vz 182793.623403
set    atom 117  vx -234712.481192 vy 36345.3824145 vz 182945.632224
set    atom 118  vx -150609.196244 vy -251946.032898 vz 60992.6759031
set    atom 119  vx -60148.4414635 vy 184264.985157 vz 228710.778571
set    atom 120  vx -84526.4072858 vy -124467.533603 vz 259312.860364
set    atom 121  vx 9548.154491 vy 224601.163628 vz -198351.178576
set    atom 122  vx 167244.792083 vy 109934.409973 vz 223212.107702
set    atom 123  vx -34506.9434245 vy 111299.438732 vz 276227.706419
set    atom 124  vx 83189.3773628 vy 12157.985112 vz 287770.309261
set    atom 125  vx -244783.906105 vy -79822.0863685 vz -153588.130531
set    atom 126  vx 63446.9767737 vy -12997.9443779 vz 292720.984182
set    atom 127  vx -296057.381146 vy 23785.7241607 vz -40795.9115007
set    atom 128  vx -170076.686168 vy 84044.6845463 vz -232143.170956
set    atom 129  vx 98219.7040997 vy 59840.2316881 vz 276861.113915
set    atom 130  vx -14147.8396252 vy -11595.5025146 vz -299241.412501
set    atom 131  vx 40534.4747284 vy -70525.4925438 vz 288553.550073
set    atom 132  vx -94815.0332741 vy 139890.9829 vz -247630.091808
set    atom 133  vx -155214.416973 vy 32303.2547065 vz 254450.436233
set    atom 134  vx -8361.76192196 vy -175279.789272 vz -243078.416176
set    atom 135  vx -281388.812481 vy 54465.0539019 vz 87942.78887
set    atom 136  vx 245917.295182 vy -170950.998055 vz 13434.2917354
set    atom 137  vx 283619.383475 vy -90704.1689518 vz 34825.838858
set    atom 138  vx 158082.3676 vy 208971.585123 vz -145673.888069
set    atom 139  vx -153412.97227 vy -221436.456556 vz -131568.976765
set    atom 140  vx 124677.650182 vy 2823.51408693 vz 272630.796708
set    atom 141  vx -8764.56798743 vy 184458.564152 vz 236174.21633
set    atom 142  vx -49532.1247197 vy 63631.1351853 vz -288751.947622
set    atom 143  vx 17433.4875146 vy 46922.0815577 vz -295591.663914
set    atom 144  vx 191123.904903 vy 165855.232653 vz -160759.866809
set    atom 145  vx 15296.5766792 vy -24674.8859524 vz -298391.026583
set    atom 146  vx -37941.5910201 vy 1357.41046948 vz 297386.336451
set    atom 147  vx -16437.7063108 vy 11322.9498575 vz -299134.806764
set    atom 148  vx -156613.745338 vy -179360.646902 vz -182159.087376
set    atom 149  vx -56582.0830578 vy -39943.3981493 vz 291689.960097
set    atom 150  vx -1743.41358874 vy -297481.086977 vz -37175.3063201
set    atom 151  vx -165267.444638 vy 132031.645904 vz 212448.478984
set    atom 152  vx 93048.3586384 vy 107350.120667 vz 264003.777525
set    atom 153  vx -208119.920223 vy 135137.306523 vz -168238.067013
set    atom 154  vx -47483.4163874 vy 283992.23931 vz -83509.1203403
set    atom 155  vx 202826.532028 vy -193887.502271 vz 105589.177328
set    atom 156  vx -37012.5173405 vy -26157.7514439 vz 296354.324415
set    atom 157  vx 288589.674626 vy 78857.8026785 vz 19429.0158232
set    atom 158  vx 4326.87260912 vy 9315.1933649 vz -299624.006625
set    atom 159  vx 50926.6661696 vy 18011.4062059 vz 294893.377205
set    atom 160  vx 65649.6093109 vy -155455.836182 vz -247797.602479
set    atom 161  vx 188771.058681 vy -128392.715582 vz 194321.481031
set    atom 162  vx -249193.861781 vy 128234.522381 vz 106481.766141
set    atom 163  vx -19246.7886881 vy 273431.665393 vz -121427.861242
set    atom 164  vx 253443.893766 vy -124368.075723 vz 100890.110781
set    atom 165  vx 253026.113002 vy 102920.789048 vz 123552.164372
set    atom 166  vx 233811.855684 vy 184785.281876 vz 32656.6339901
set    atom 167  vx -45943.7111346 vy 103891.541218 vz -277445.063158
set    atom 168  vx 27957.1723399 vy -18061.7983169 vz 297946.65287
set    atom 169  vx 74423.8032075 vy 290120.242807 vz -13091.3035914
set    atom 170  vx 140436.214899 vy 78015.9959016 vz 253122.922566
set    atom 171  vx -10042.0500889 vy 619.46390933 vz 299631.129048
set    atom 172  vx -37137.5661059 vy 76709.150455 vz -287430.943742
set    atom 173  vx -282496.12136 vy -56134.6738038 vz -83215.86275
set    atom 174  vx -17053.3695312 vy -24974.1397127 vz 298270.875101
set    atom 175  vx -53704.6549884 vy -100647.203638 vz -277247.164877
set    atom 176  vx -255397.35554 vy 153501.160785 vz -33009.4595677
set    atom 177  vx 167880.984617 vy -244260.280314 vz -45088.0301742
set    atom 178  vx -12807.5046023 vy 2454.74866145 vz 299516.246696
set    atom 179  vx 118109.446573 vy -84775.7746282 vz -262189.371765
set    atom 180  vx -84594.4480772 vy -92726.7291891 vz -272260.120195
set    atom 181  vx 10455.9399422 vy 4081.86708104 vz 299589.805703
set    atom 182  vx -89365.4757647 vy -109714.786568 vz -264303.835291
set    atom 183  vx 1060.8398887 vy -185.75361167 vz -299798.065561
set    atom 184  vx -54168.9196397 vy 247059.398786 vz 160957.825584
set    atom 185  vx 14995.7011579 vy 15081.6376391 vz 299044.667488
set    atom 186  vx -280602.568182 vy -26955.3938006 vz -102057.069695
set    atom 187  vx 71664.6805439 vy 198902.266294 vz 212560.819592
set    atom 188  vx -157756.138333 vy 167952.082737 vz -191794.522139
set    atom 189  vx -170479.637253 vy -47206.052019 vz -242050.246715
set    atom 190  vx 73726.643676 vy -288771.495361 vz 32487.6203998
set    atom 191  vx -266070.780598 vy 701.553077897 vz 138151.683072
set    atom 192  vx 73225.6366112 vy -184878.042208 vz 224361.662617
set    atom 193  vx 287623.277046 vy -18988.7821413 vz -82415.5122175
set    atom 194  vx 263132.53089 vy -92055.028892 vz 110304.953847
set    atom 195  vx 64698.8745148 vy 176207.899199 vz 233762.426186
set    atom 196  vx -80763.9188371 vy -112640.374284 vz -265837.122117
set    atom 197  vx -134471.106663 vy -18950.2936013 vz -267279.718357
set    atom 198  vx 162231.629993 vy 117068.481543 vz -223284.3677
set    atom 199  vx 254939.173066 vy -12950.8039311 vz 157220.65613
set    atom 200  vx -26725.7735476 vy 8506.04630004 vz -298485.209357
set    atom 201  vx -188297.745126 vy -143555.854643 vz -183890.499424
set    atom 202  vx -109574.428897 vy -275595.152985 vz 43826.8888122
set    atom 203  vx 34679.927051 vy -6020.28043873 vz 297726.550518
set    atom 204  vx 224074.411224 vy -145930.225498 vz 135554.666171
set    atom 205  vx 153866.000943 vy -175997.017473 vz 187697.478924
set    atom 206  vx -126942.377395 vy -270653.631009 vz -22633.7103177
set    atom 207  vx 103181.355098 vy -173689.945345 vz -221507.225268
set    atom 208  vx 145043.882426 vy -247557.467371 vz 86934.5300762
set    atom 209  vx -8359.10630213 vy -7787.17693405 vz -299582.251172
set    atom 210  vx -103192.220332 vy 186895.888455 vz -210478.817323
set    atom 211  vx 15661.915154 vy 196227.67851 vz 226118.204929
set    atom 212  vx 182469.493249 vy -199420.504389 vz -129678.010713
set    atom 213  vx -19609.9258567 vy -159960.914379 vz -252800.309887
set    atom 214  vx 50632.4448298 vy -53645.6258548 vz 290583.107488
set    atom 215  vx 237660.038567 vy 157158.952451 vz -93267.4098122
set    atom 216  vx -50663.4761417 vy -264323.151944 vz -132085.288853
set    atom 217  vx 13165.06524 vy -223303.785708 vz 199604.960725
set    atom 218  vx -272711.738003 vy -20929.5532951 vz 122761.15735
set    atom 219  vx 178441.138616 vy -136711.415827 vz 198365.2914
set    atom 220  vx -177585.874922 vy 239379.869536 vz 32257.9461406
set    atom 221  vx 76518.8269185 vy -149669.776196 vz 248241.550149
set    atom 222  vx -213311.398605 vy 193057.125057 vz -84304.4108578
set    atom 223  vx -144744.275063 vy -89344.9006856 vz 246873.699608
set    atom 224  vx 147299.946406 vy 252016.216141 vz -68341.7338857
set    atom 225  vx 140720.593171 vy -138483.852833 vz 225610.23284
set    atom 226  vx -109176.706911 vy 261856.919433 vz 96909.4443973
set    atom 227  vx -154822.526781 vy -118794.521812 vz -227591.491029
set    atom 228  vx -46886.9182939 vy 46255.7847488 vz -292475.741336
set    atom 229  vx -64917.3520172 vy 287482.898763 vz 54948.7063174
set    atom 230  vx -130155.887979 vy 64041.3327674 vz 262370.334683
set    atom 231  vx 228649.116992 vy 174481.186252 vz 84592.7712208
set    atom 232  vx 247386.887701 vy 150415.785475 vz -77812.9762556
set    atom 233  vx -28620.5681886 vy 124067.920355 vz 271418.595927
set    atom 234  vx 218945.30675 vy 166217.603616 vz 119644.059193
set    atom 235  vx -124612.422873 vy -58173.8020002 vz 266397.433972
set    atom 236  vx 8859.43456698 vy -19602.5297459 vz -299027.241647
set    atom 237  vx 295821.407417 vy -47949.563509 vz -8400.84953712
set    atom 238  vx 110486.693233 vy -260057.805356 vz 100213.11537
set    atom 239  vx 225852.141836 vy -115559.471904 vz -159739.971458
set    atom 240  vx 199432.414494 vy 123445.871937 vz 186729.399802
set    atom 241  vx 195965.017797 vy -41247.0570379 vz -223106.32462
set    atom 242  vx 281888.751301 vy -93854.5305791 vz -40126.0386729
set    atom 243  vx -272100.931575 vy -98988.4365712 vz -77732.9560815
set    atom 244  vx 70091.5918783 vy -36993.1604793 vz 289134.423453
set    atom 245  vx 83982.7940372 vy 81565.042285 vz 275996.511179
set    atom 246  vx 20312.6507312 vy 75549.4457636 vz 289412.711305
set    atom 247  vx 272111.437224 vy 123473.70016 vz -24282.7325667
set    atom 248  vx -89169.8632338 vy 99344.1412921 vz 268439.037924
set    atom 249  vx 4709.15202562 vy -96960.6941729 vz -283648.528416
set    atom 250  vx -52713.3530581 vy 157275.734012 vz -249731.227323
set    atom 251  vx -227995.853901 vy -130704.977467 vz -144271.06248
set    atom 252  vx 209780.041617 vy 147842.359682 vz 154967.773498
set    atom 253  vx -78715.1514198 vy 186203.067347 vz 221387.403994
set    atom 254  vx -116836.771621 vy 18584.2947512 vz 275470.203081
set    atom 255  vx -197597.474087 vy -220532.329365 vz 46912.3644585
set    atom 256  vx -76257.732728 vy -134463.721135 vz -256874.105152
set    atom 257  vx -265552.059394 vy 112291.648596 vz 82174.992592
set    atom 258  vx 63954.7447636 vy 212207.522967 vz -201885.605774
set    atom 259  vx -45615.9214344 vy -242695.829463 vz -169994.005991
set    atom 260  vx -135744.313693 vy 58540.7715518 vz 260818.901474
set    atom 261  vx -62823.4194142 vy -61997.0092821 vz 286512.877221
set    atom 262  vx -168845.962263 vy -148406.625918 vz 198359.659233
set    atom 263  vx -35541.7736402 vy -61674.3875627 vz -291226.874181
set    atom 264  vx -169204.034626 vy 39202.3532578 vz 244362.865766
set    atom 265  vx -48615.3619367 vy -27168.2945915 vz -294581.856795
set    atom 266  vx -8858.85176193 vy -167163.096787 vz -248712.805899
set    atom 267  vx 33111.9946178 vy -68130.5575217 vz 290072.16851
set    atom 268  vx -117421.954382 vy -262459.599472 vz 84894.542075
set    atom 269  vx 112790.935426 vy -18478.3383762 vz 277158.43104
set    atom 270  vx -92297.2730004 vy 175198.782463 vz -225092.514358
set    atom 271  vx 125.915297173 vy -119161.360404 vz -275101.062034
set    atom 272  vx -186849.928197 vy 31420.5249847 vz 232335.737549
set    atom 273  vx -185769.972213 vy -87772.5272119 vz -218324.393715
set    atom 274  vx -246766.435638 vy -76140.802039 vz -152279.16636
set    atom 275  vx 55.4457919096 vy -2971.02912384 vz -299785.273007
set    atom 276  vx -276100.415041 vy -100450.801701 vz -59650.9618685
set    atom 277  vx -92736.6370472 vy -11248.9547204 vz -284874.388401
set    atom 278  vx -203262.587919 vy -59072.9154608 vz 212308.151072
set    atom 279  vx -144918.048627 vy 135069.440495 vz 225022.322063
set    atom 280  vx -225284.637281 vy -197450.263281 vz -11843.3836092
set    atom 281  vx 11946.2590094 vy -28808.0153058 vz -298173.481634
set    atom 282  vx 7689.38684184 vy 288268.019639 vz -81990.6225324
set    atom 283  vx -200404.806578 vy 200977.5239 vz 96571.1571186
set    atom 284  vx -14984.2291571 vy 184791.459034 vz -235600.572038
set    atom 285  vx -21847.9311897 vy -2093.93056764 vz -298995.523976
set    atom 286  vx -153206.43598 vy 163357.242432 vz 199304.38861
set    atom 287  vx 120101.589835 vy 121862.020068 vz -246181.429405
set    atom 288  vx 53656.2361625 vy -3421.4155771 vz -294939.55692
set    atom 289  vx -264951.286045 vy 112910.613415 vz 83258.9298606
set    atom 290  vx -148967.188346 vy -164840.805424 vz 201286.675326
set    atom 291  vx 128567.04839 vy -222810.700749 vz -153967.352708
set    atom 292  vx -193267.988692 vy -36951.1255063 vz -226190.492441
set    atom 293  vx -84710.9460156 vy 260044.525991 vz 122804.479264
set    atom 294  vx 96500.7881549 vy -90952.8814353 vz -268877.68826
set    atom 295  vx 234841.599475 vy -103497.304411 vz 154976.679328
set    atom 296  vx -1697.612553 vy -29669.7508162 vz 298323.421806
set    atom 297  vx -276781.737221 vy -92539.5480214 vz -68617.3592666
set    atom 298  vx -45673.3194473 vy 246709.382972 vz 164098.958693
set    atom 299  vx 44387.1103781 vy -2163.21520366 vz 296488.018193
set    atom 300  vx 60460.8712115 vy 19321.3797009 vz -293003.766766
set    atom 301  vx -203090.945789 vy -112392.119267 vz 189742.244282
set    atom 302  vx 53414.2710085 vy 241756.088658 vz -169059.011145
set    atom 303  vx -89253.4581598 vy 71254.0234414 vz 277194.380084
set    atom 304  vx 80116.4144953 vy 63398.8262388 vz -281854.552846
set    atom 305  vx 127836.381719 vy 266007.216006 vz 52707.3101371
set    atom 306  vx 29931.5347426 vy 235282.891346 vz 183374.219202
set    atom 307  vx 107721.070517 vy 135960.761507 vz -244521.741972
set    atom 308  vx 33497.717369 vy 26580.6144972 vz 296734.58488
set    atom 309  vx -29872.5424402 vy 14364.1921086 vz 297961.979442
set    atom 310  vx -214213.502755 vy 86091.2673134 vz 191261.362877
set    atom 311  vx -163034.671504 vy 79970.7298734 vz 238546.469794
set    atom 312  vx -159386.15241 vy 26421.2445363 vz 252543.089902
set    atom 313  vx -125215.374192 vy 236707.270148 vz -134799.177762
set    atom 314  vx 205858.160107 vy 162694.884728 vz -145027.005763
set    atom 315  vx 15071.757911 vy -69309.108475 vz 291288.739219
set    atom 316  vx 270298.391007 vy -102606.815056 vz 79313.6893792
set    atom 317  vx -152740.054995 vy 139240.179292 vz -217169.72181
set    atom 318  vx 1139.84188603 vy -2039.97417811 vz 299790.892567
set    atom 319  vx 30236.0386528 vy -179734.107731 vz -238036.704071
set    atom 320  vx -88961.8880247 vy 121040.974879 vz -259451.160875
set    atom 321  vx 210164.387779 vy -112050.958422 vz -182086.662955
set    atom 322  vx -138685.935074 vy 17893.4857785 vz 265190.638182
set    atom 323  vx 2303.97865796 vy 28757.6305977 vz 298408.663354
set    atom 324  vx -118103.797322 vy 3118.59683673 vz -275539.121382
set    atom 325  vx -266369.720236 vy -80940.0175707 vz 111247.137927
set    atom 326  vx -33989.9106721 vy 57140.9692893 vz 292334.80053
set    atom 327  vx 6676.54035071 vy 14546.8222026 vz -299372.433221
set    atom 328  vx 124626.54585 vy -271510.634186 vz 25104.5731622
set    atom 329  vx -216434.820282 vy 207360.595624 vz 6131.22762615
set    atom 330  vx -227444.699513 vy 144890.80117 vz -130979.404487
set    atom 331  vx -22122.0087348 vy 280832.08049 vz 102586.5454
set    atom 332  vx 77426.0844012 vy 108717.076692 vz 268450.812422
set    atom 333  vx -77433.3274073 vy -68550.9036564 vz -281398.104852
set    atom 334  vx 129941.709133 vy 262458.521096 vz -64114.8729365
set    atom 335  vx -182962.700073 vy 205783.155548 vz -118566.366541
set    atom 336  vx -105138.369295 vy -2977.43080735 vz -280743.830222
set    atom 337  vx -220256.829329 vy 16433.7409263 vz -202723.706787
set    atom 338  vx 14081.0322795 vy -37521.4541948 vz -297109.247593
set    atom 339  vx 88392.8479233 vy -280823.26287 vz -56613.0679897
set    atom 340  vx -33675.6118325 vy 34970.9626005 vz 295842.905851
set    atom 341  vx -230804.645913 vy -172377.941417 vz 83036.743301
set    atom 342  vx 59215.2620695 vy -35935.620592 vz 291688.5735
set    atom 343  vx -141210.277974 vy 263729.305873 vz 19660.8905758
set    atom 344  vx -298270.828498 vy 12500.1690946 vz -27537.2228062
set    atom 345  vx -33616.9848979 vy -86770.3639717 vz 284992.70563
set    atom 346  vx 145631.000132 vy -217865.634298 vz -145623.546147
set    atom 347  vx 146530.031003 vy 252670.434027 vz -67576.9323281
set    atom 348  vx 3195.99757735 vy -9119.27288413 vz -299644.229815
set    atom 349  vx 131267.896062 vy 188856.881296 vz -192306.676563
set    atom 350  vx 80025.1319164 vy 193859.477258 vz 214230.066375
set    atom 351  vx -82010.5507036 vy 218927.49272 vz -187683.410307
set    atom 352  vx 211923.388802 vy 197632.710144 vz -76875.4132326
set    atom 353  vx 13026.3800386 vy -275888.864395 vz 116600.548566
set    atom 354  vx 52344.7682633 vy -288337.268784 vz 63258.8702537
set    atom 355  vx -153899.623237 vy 115784.622998 vz -229758.2796
set    atom 356  vx -14724.6417857 vy 45132.5075433 vz -296017.367205
set    atom 357  vx 71120.4055221 vy 67866.2658322 vz 283224.46554
set    atom 358  vx -291692.555744 vy -1062.8596045 vz 69241.3406369
set    atom 359  vx 40621.5681228 vy -92114.560268 vz 282391.281717
set    atom 360  vx -93757.031748 vy 95606.0425404 vz 268233.375305
set    atom 361  vx 139126.256571 vy 114433.768629 vz -239643.145802
set    atom 362  vx -57224.725522 vy 280741.776355 vz 88257.723731
set    atom 363  vx 5433.37517249 vy 4901.21434212 vz -299710.688051
set    atom 364  vx -42935.7252116 vy -43500.0657831 vz 293503.505562
set    atom 365  vx 222695.551886 vy -24164.5823512 vz -199255.62509
set    atom 366  vx -122737.242523 vy -246318.649811 vz -118923.219151
set    atom 367  vx 92083.8827317 vy -112313.114877 vz 262271.543953
set    atom 368  vx -270316.314719 vy -109060.754074 vz -70106.2188228
set    atom 369  vx -161864.043779 vy 166213.32652 vz -189876.8059
set    atom 370  vx -187393.179952 vy 229636.691842 vz -45064.6853687
set    atom 371  vx -147618.884295 vy -245907.323462 vz -87282.834895
set    atom 372  vx 78922.5170465 vy -105573.679851 vz -269268.405918
set    atom 373  vx 147432.865106 vy 80076.3361836 vz 248457.985724
set    atom 374  vx 74094.2648356 vy -112820.487371 vz -267696.876238
set    atom 375  vx -111642.700504 vy -159709.100042 vz 227835.35895
set    atom 376  vx 280872.240967 vy 31948.9748428 vz 99850.3242904
set    atom 377  vx -288262.504582 vy -13058.8346159 vz 81327.9490142
set    atom 378  vx -88631.7103482 vy -45782.4556597 vz 282716.159203
set    atom 379  vx -160042.173562 vy -8936.25362991 vz 253350.914844
set    atom 380  vx -17029.6456825 vy -15181.8656428 vz -298930.664408
set    atom 381  vx -95374.2114104 vy -28424.5445123 vz -282800.008959
set    atom 382  vx -221.773711105 vy -3171.65832893 vz -299783.14062
set    atom 383  vx -279949.323292 vy -49416.7242203 vz -95217.6651457
set    atom 384  vx -188793.702202 vy 39283.5463119 vz -229551.260066
set    atom 385  vx 78597.9901713 vy -235012.135574 vz -168735.568492
set    atom 386  vx 290996.488593 vy -28764.8044474 vz 66133.7255256
set    atom 387  vx -190007.934039 vy -182166.784174 vz -143500.131519
set    atom 388  vx -68590.7109951 vy 132231.39355 vz -260173.428553
set    atom 389  vx -172638.723705 vy -70954.2405148 vz -234609.051041
set    atom 390  vx -217144.550631 vy 201659.233194 vz -45407.4641298
set    atom 391  vx 45977.7903751 vy -107707.395016 vz -275980.433819
set    atom 392  vx 38362.0504225 vy -274344.294317 vz 114645.546198
set    atom 393  vx 82163.4831878 vy 148621.985091 vz 247064.177044
set    atom 394  vx 19231.4890828 vy -299134.296671 vz 5372.37219464
set    atom 395  vx 3774.23798895 vy -293833.375674 vz 59394.8016887
set    atom 396  vx 196005.181987 vy 226178.798966 vz -17468.815999
set    atom 397  vx -7273.11458083 vy -81019.005776 vz -288553.396285
set    atom 398  vx 88530.8017631 vy -144277.730262 vz 247439.434387
set    atom 399  vx -258181.184071 vy 120671.321589 vz -93064.2162045
set    atom 400  vx -16367.6068764 vy 26224.2707152 vz -298201.99374
set    atom 401  vx -113626.330668 vy -25377.0044629 vz -276269.985021
set    atom 402  vx -29369.9498773 vy 131128.26778 vz 267997.804904
set    atom 403  vx 137464.284391 vy 264251.001245 vz 33985.5683789
set    atom 404  vx 203395.398737 vy -215346.960769 vz 46217.2939491
set    atom 405  vx -84936.0060682 vy 231856.785366 vz -170024.545148
set    atom 406  vx 284754.00249 vy -34311.4497289 vz -87280.7108323
set    atom 407  vx 60151.7185865 vy 214197.792085 vz 200950.532761