#Run with: ~/Downloads/Current_LAMMPS_Build/LAMMPS_Files/build3/lmp -in Argon_0_5c_Script.txt     


#Initialization

units           	metal
dimension       	3
atom_style      	sphere
pair_style      	lj/cut 3.816370964
#pair_style          lj/cut 6.0
boundary		    p p p
#use me for classical: (necessary for longer gr)
#comm_modify         mode single cutoff 13.0 vel yes #made the cutoff longer to accomodate a longer gr
#Use me for relativistic:
#(non modified cutoff) 

#System Definitions


#for 500 atoms, use 28.982 angstroms as box side to get the same density as Rahman. 
region          myreg block 0 28.982 0 28.982 0 28.982
create_box	    1 myreg
create_atoms	1 random 500 341341 myreg

#sampling the tracers alone for the diffusion calculation to avoid making 10GB files for little gain. 
#group           tracers id 100

#Simulation Settings


pair_coeff  	1 1 0.01034 3.4
neigh_modify	every 1 delay 5 check yes

set             type 1 mass 39.95
set             type 1 diameter 0

#set initial velocity spike to 0.000001096c to try and get Rahman Conditions from full cutoff.
#set initial velocity spike to 0.0000009c to try and get Rahman Conditions from 3....  cutoff. gives 90.87 
#set initial velocity spike to 0.00000093c to try and get Rahman Conditions from 3....  cutoff. gives 96.39
#set initial velocity spike to 0.000000915c to try and get Rahman Conditions from 3....  cutoff. gives 93.0635998915
#set initial velocity spike to 0.00000092c to try and get Rahman Conditions from 3....  cutoff. gives 93.4825392925
#set initial velocity spike to 0.000000925c to try and get Rahman Conditions from 3....  cutoff. gives 93.6158749159 
#set initial velocity spike to 0.000000928c to try and get Rahman Conditions from 3....  cutoff. gives 95.2815929214
#set initial velocity spike to 0.0000009265c to try and get Rahman Conditions from 3....  cutoff. gives 94.6603577863

set    atom 1  vx -736008.252913 vy 1144657.55004 vz 628531.578198
set    atom 2  vx -443477.44847 vy -1427243.44138 vz -115346.919025
set    atom 3  vx 909015.514162 vy -1184342.04938 vz 134259.841676
set    atom 4  vx -594359.667191 vy 1092187.23494 vz -837176.582245
set    atom 5  vx 47866.762741 vy -1310147.27845 vz 726790.122238
set    atom 6  vx -1072797.29701 vy -100414.562334 vz -1042124.69273
set    atom 7  vx -566918.556823 vy -1289756.09264 vz 511989.815739
set    atom 8  vx 283473.42536 vy -254081.169058 vz 1449857.43321
set    atom 9  vx -527058.773434 vy 1379887.93121 vz 255184.926372
set    atom 10  vx -685419.991636 vy -764755.065526 vz -1091947.8581
set    atom 11  vx 871227.930367 vy -1219493.54527 vz 28255.7321341
set    atom 12  vx 818199.089463 vy 619625.862673 vz -1092526.90599
set    atom 13  vx -262829.160056 vy -739657.056101 vz -1277039.26016
set    atom 14  vx -87859.0029812 vy -252065.040763 vz 1475040.68107
set    atom 15  vx 1060400.96584 vy 304575.357855 vz 1014783.0522
set    atom 16  vx -114187.576202 vy 986836.34648 vz -1122548.98455
set    atom 17  vx -166556.920561 vy -999519.528248 vz -1104635.91507
set    atom 18  vx -1447236.32913 vy -382713.463347 vz 77707.2237276
set    atom 19  vx -392568.003963 vy 614299.658137 vz 1309781.39103
set    atom 20  vx 409440.822174 vy -51534.9872205 vz 1441077.15207
set    atom 21  vx 779905.667829 vy -706971.509275 vz -1067211.05427
set    atom 22  vx 998424.275497 vy 908920.607854 vz -651163.032364
set    atom 23  vx 73432.6386115 vy -108314.981757 vz -1493277.105
set    atom 24  vx -111472.743305 vy 131895.276632 vz -1489019.29588
set    atom 25  vx -1014762.0598 vy 359855.768122 vz -1042958.67039
set    atom 26  vx -664270.594392 vy 1342975.8493 vz 46491.3498779
set    atom 27  vx 1212777.67453 vy -692635.727326 vz 544451.156115
set    atom 28  vx -511521.121113 vy 358771.926126 vz 1362582.05172
set    atom 29  vx 718379.41831 vy 935449.626243 vz -925130.265482
set    atom 30  vx -880979.308836 vy 829944.04269 vz 884346.845647
set    atom 31  vx 981818.55814 vy -991058.030484 vz -548486.370939
set    atom 32  vx 201301.819043 vy -114872.211157 vz 1480973.65026
set    atom 33  vx 77818.9242905 vy -924168.600065 vz -1177649.18956
set    atom 34  vx 85995.8343265 vy 2562.86098378 vz 1496529.03354
set    atom 35  vx 699551.904203 vy 652293.364748 vz -1154184.34387
set    atom 36  vx 205619.912984 vy -712058.278055 vz 1302956.04686
set    atom 37  vx 223031.043581 vy 186791.080092 vz -1470498.97858
set    atom 38  vx -568181.313542 vy -123925.76073 vz -1381598.13288
set    atom 39  vx 720492.159053 vy 1294940.95761 vz 225875.994819
set    atom 40  vx -574274.842686 vy -1369510.72527 vz -204082.773468
set    atom 41  vx -1318278.15395 vy 294032.304354 vz -650145.147493
set    atom 42  vx 244402.27511 vy -10909.8047188 vz 1478901.45178
set    atom 43  vx 1109692.48597 vy -555185.856592 vz 841042.359951
set    atom 44  vx 152382.925037 vy -1385691.41586 vz -551035.156926
set    atom 45  vx -708035.409486 vy 788770.962418 vz -1059965.67292
set    atom 46  vx 346509.461017 vy 1332866.57404 vz -591945.005253
set    atom 47  vx 1390215.80604 vy 468956.428994 vz -307214.713725
set    atom 48  vx -1327613.40298 vy 397739.138173 vz 571180.558303
set    atom 49  vx -712276.764641 vy -498315.755774 vz -1221206.05063
set    atom 50  vx -112177.19667 vy 289385.271297 vz 1466517.45346
set    atom 51  vx -1238566.38695 vy -795579.202743 vz 282856.920138
set    atom 52  vx 603289.690879 vy 1332256.76088 vz 328838.063428
set    atom 53  vx 1252014.19527 vy 777050.405474 vz 275052.944348
set    atom 54  vx 1274223.51358 vy 115532.839013 vz -781029.833327
set    atom 55  vx 295398.142729 vy 230359.166408 vz 1451439.14503
set    atom 56  vx 22766.6881785 vy -229473.509025 vz 1481156.50306
set    atom 57  vx 343603.946296 vy 356747.347474 vz 1414803.39912
set    atom 58  vx 11745.2403761 vy -5233.12281834 vz -1498944.85014
set    atom 59  vx -1267591.72541 vy 582200.698024 vz 548866.618488
set    atom 60  vx 50501.9230022 vy -402975.435605 vz 1442934.97916
set    atom 61  vx -381468.873618 vy 927817.106151 vz -1113839.26847
set    atom 62  vx 370945.286202 vy -66316.4014402 vz 1450862.75352
set    atom 63  vx 70750.7979776 vy -80628.0117526 vz 1495156.99788
set    atom 64  vx 84990.1663181 vy 27131.7185713 vz 1496342.72193
set    atom 65  vx 1495633.42605 vy 8240.40623946 vz -100068.729298
set    atom 66  vx 1117044.27769 vy -105372.017259 vz -994037.131927
set    atom 67  vx 917086.922896 vy 601674.998067 vz 1021733.70922
set    atom 68  vx 346330.226364 vy -439655.854216 vz 1390596.67199
set    atom 69  vx -232499.971945 vy 81075.2645239 vz -1478638.41575
set    atom 70  vx -14710.2310036 vy 277079.320114 vz -1473095.94374
set    atom 71  vx 956530.36528 vy -460231.41098 vz 1058412.82525
set    atom 72  vx 64370.0644326 vy -103292.984011 vz -1494050.88744
set    atom 73  vx -467637.481801 vy -64935.1864013 vz -1422708.54611
set    atom 74  vx -697835.518094 vy 1231948.08347 vz 492270.768303
set    atom 75  vx 36047.3351647 vy -168526.940822 vz 1489060.19349
set    atom 76  vx 809596.174997 vy 1197581.94189 vz 396676.853232
set    atom 77  vx 1120192.26018 vy -630864.721217 vz 770830.72316
set    atom 78  vx -1055607.5806 vy -606708.916999 vz -874412.903506
set    atom 79  vx 422403.620828 vy -660121.986242 vz 1277816.5535
set    atom 80  vx 1260548.15372 vy -516721.714345 vz 625314.338608
set    atom 81  vx 598357.903113 vy -1368997.58388 vz 121714.564053
set    atom 82  vx -632911.483137 vy -90329.3399883 vz 1355826.19271
set    atom 83  vx -1039447.60879 vy -320187.637141 vz 1031518.07818
set    atom 84  vx -353011.478167 vy -1315261.97702 vz 626474.124028
set    atom 85  vx 1089686.32203 vy -205487.129387 vz -1008642.53293
set    atom 86  vx 923490.167166 vy 675255.699312 vz -968605.519133
set    atom 87  vx -202199.747956 vy 321880.008833 vz 1450003.28339
set    atom 88  vx 465787.565071 vy 549641.948455 vz -1314510.05045
set    atom 89  vx -300392.912719 vy 474783.792445 vz 1389728.55206
set    atom 90  vx 147402.348484 vy -257643.316305 vz 1469317.34803
set    atom 91  vx -544075.55996 vy -307406.072846 vz 1362528.63876
set    atom 92  vx -867720.141302 vy 166181.972601 vz 1210969.16078
set    atom 93  vx -268043.098592 vy -116819.869621 vz 1470206.45331
set    atom 94  vx -639551.911695 vy 996711.914895 vz -918988.417204
set    atom 95  vx -315774.832872 vy -156617.711047 vz 1456968.82174
set    atom 96  vx -335628.592182 vy 507870.309289 vz 1369825.60826
set    atom 97  vx -359282.42532 vy 393572.877833 vz 1401077.27435
set    atom 98  vx 350739.032197 vy 924690.647237 vz -1126468.08131
set    atom 99  vx 919190.414868 vy -304983.15259 vz -1144148.26742
set    atom 100  vx 1044987.70308 vy -862524.28045 vz 641134.592762
set    atom 101  vx 358151.542189 vy -319018.01463 vz -1420195.75382
set    atom 102  vx 501186.774677 vy 449050.941688 vz 1339464.84413
set    atom 103  vx -1026953.31932 vy -940021.218642 vz -555632.961977
set    atom 104  vx -672170.039544 vy -831177.981321 vz -1050871.82915
set    atom 105  vx 452190.249391 vy -252279.836513 vz -1406726.64809
set    atom 106  vx -620942.172318 vy -1360631.27365 vz 100570.153621
set    atom 107  vx 187335.117106 vy -25986.7998313 vz -1487020.92794
set    atom 108  vx -707987.541817 vy -91308.9387022 vz 1318111.26933
set    atom 109  vx 1483531.81267 vy 21557.8648378 vz -213704.513902
set    atom 110  vx -1362194.5135 vy 570659.692393 vz -256465.636804
set    atom 111  vx 924280.523943 vy -214283.543438 vz -1160512.41961
set    atom 112  vx 7403.61082588 vy 48049.7454293 vz -1498211.40314
set    atom 113  vx -481762.208243 vy -232651.991124 vz 1400278.26725
set    atom 114  vx 1167533.77283 vy 860293.642925 vz 379157.931799
set    atom 115  vx 205664.044104 vy -697176.66166 vz -1310972.15966
set    atom 116  vx -536018.030986 vy 1178429.54639 vz -755638.454979
set    atom 117  vx -736536.144264 vy 652354.627979 vz 1130906.25056
set    atom 118  vx 175056.772017 vy 645773.940744 vz 1341391.86818
set    atom 119  vx -124112.30145 vy -7827.8784703 vz 1493832.60807
set    atom 120  vx 329727.418943 vy -160550.932595 vz -1453445.63959
set    atom 121  vx -1399374.29879 vy -257945.051995 vz -471398.899063
set    atom 122  vx 94595.0001764 vy -113924.722276 vz 1491668.17476
set    atom 123  vx 247544.874879 vy -830262.145191 vz -1223269.10579
set    atom 124  vx 282913.218417 vy 769989.763254 vz -1254622.20422
set    atom 125  vx 183921.240782 vy 1476459.43712 vz 182322.537656
set    atom 126  vx -207411.000028 vy 358678.19853 vz -1440601.13389
set    atom 127  vx -963271.786355 vy -534539.177304 vz -1016551.19573
set    atom 128  vx -454964.114118 vy -510181.327427 vz -1334062.8426
set    atom 129  vx 272861.592872 vy -172712.49177 vz -1463802.56398
set    atom 130  vx 1345008.14076 vy 642304.351851 vz 159371.330203
set    atom 131  vx -820464.577348 vy 758996.176153 vz -998881.215111
set    atom 132  vx 594456.618518 vy 1374693.72641 vz -61963.5962823
set    atom 133  vx 89734.4900443 vy 633962.785423 vz -1355374.45306
set    atom 134  vx -311935.468665 vy 433095.151745 vz -1400759.02743
set    atom 135  vx 509616.118103 vy 157726.32607 vz 1400862.16961
set    atom 136  vx 890189.648146 vy 1181143.01514 vz 243853.579282
set    atom 137  vx -478530.088612 vy 1243722.97007 vz 686413.234156
set    atom 138  vx 268837.201574 vy -609378.401379 vz -1342901.90371
set    atom 139  vx -450495.894798 vy 1204871.44341 vz 769635.792846
set    atom 140  vx 1290042.82179 vy 222966.193432 vz 730120.945133
set    atom 141  vx 359943.214406 vy -279988.666301 vz -1427952.46039
set    atom 142  vx -1193356.82788 vy 767447.175728 vz 483658.261394
set    atom 143  vx -13024.3532076 vy -7716.01290147 vz -1498923.55688
set    atom 144  vx 139680.638619 vy 1419596.67156 vz -460690.36161
set    atom 145  vx -258602.704915 vy 1429568.17131 vz -369405.582781
set    atom 146  vx 111538.259482 vy -242589.0599 vz -1475029.07249
set    atom 147  vx 761704.482184 vy -1269550.66312 vz -234623.945056
set    atom 148  vx -442390.202406 vy 4239.64200346 vz -1432226.91437
set    atom 149  vx -813817.996529 vy -1256434.99926 vz -77925.3563381
set    atom 150  vx 1050141.16628 vy 1068254.50883 vz 55107.4882225
set    atom 151  vx 217914.440908 vy -109473.934881 vz -1479030.00444
set    atom 152  vx 99164.2992365 vy -1280995.98049 vz -772150.723451
set    atom 153  vx -193506.84751 vy 69230.8496782 vz -1484844.50008
set    atom 154  vx 358908.307817 vy -56484.8215843 vz 1454302.33841
set    atom 155  vx -245889.304148 vy 513935.063414 vz -1386510.07955
set    atom 156  vx -584124.040439 vy 981447.233495 vz -970856.031163
set    atom 157  vx -143370.234122 vy -10892.1198475 vz -1492088.24729
set    atom 158  vx 35115.3091207 vy -1024472.61106 vz -1093720.15811
set    atom 159  vx -517607.008681 vy -1170735.59691 vz -780039.8366
set    atom 160  vx 106462.256672 vy -970.179534803 vz -1495214.31462
set    atom 161  vx 1404669.40204 vy 444882.342988 vz 275652.991788
set    atom 162  vx 305035.411912 vy 230746.135847 vz 1449382.84048
set    atom 163  vx -1113769.55654 vy -638800.037101 vz -773597.367833
set    atom 164  vx 787369.972737 vy -1146702.46249 vz -558679.683323
set    atom 165  vx 679509.601282 vy 483468.403223 vz 1245602.66733
set    atom 166  vx 551054.729136 vy 68099.7459328 vz 1392372.83444
set    atom 167  vx 1415229.20585 vy 406068.58538 vz -281488.186017
set    atom 168  vx -1284569.14852 vy -719540.986289 vz -281325.206356
set    atom 169  vx -485780.960689 vy 451781.078772 vz 1344214.16266
set    atom 170  vx -965059.25323 vy -1114830.75924 vz -269840.723408
set    atom 171  vx -335468.328573 vy -543352.32427 vz -1356182.23415
set    atom 172  vx 313332.567986 vy -307188.440522 vz 1433338.39823
set    atom 173  vx -1321520.45634 vy -687171.170348 vz 168465.029323
set    atom 174  vx 919304.573494 vy -1158325.99139 vz -245277.391568
set    atom 175  vx -90087.7408964 vy 936273.454162 vz 1167166.31976
set    atom 176  vx -222710.749217 vy 501502.986328 vz 1394953.64686
set    atom 177  vx -1468653.14222 vy -240369.013268 vz -179671.047505
set    atom 178  vx -618059.964066 vy -1280982.97053 vz -473376.71049
set    atom 179  vx 26623.3733951 vy 1117827.64982 vz 998375.45106
set    atom 180  vx 580664.723887 vy 1316106.32621 vz -421537.206604
set    atom 181  vx -364226.949409 vy -38454.4728886 vz 1453568.36194
set    atom 182  vx -271823.427251 vy -208378.386293 vz -1459346.24833
set    atom 183  vx 704066.276621 vy 1266340.64927 vz -384282.497805
set    atom 184  vx -152412.346048 vy -1461685.78622 vz 295374.574267
set    atom 185  vx -837433.518526 vy -1038364.72249 vz -683743.230421
set    atom 186  vx 382236.750296 vy 185872.824615 vz -1437479.5163
set    atom 187  vx -1203777.81901 vy 661155.286913 vz 600661.010098
set    atom 188  vx -204642.749528 vy 1232691.84776 vz 828005.527474
set    atom 189  vx 349022.398565 vy -668733.062497 vz -1295368.84957
set    atom 190  vx 335042.898969 vy 79425.6033891 vz 1458917.00565
set    atom 191  vx 867297.440977 vy 917805.446744 vz -807730.96437
set    atom 192  vx -588750.41735 vy 1261305.07393 vz -556312.373172
set    atom 193  vx 6354.49233504 vy 1659.10136651 vz -1498985.61294
set    atom 194  vx 1361987.40328 vy -481116.484166 vz 400647.278745
set    atom 195  vx 1078958.36884 vy -522156.522388 vz 900112.439881
set    atom 196  vx -318145.158512 vy 1052955.44043 vz 1018366.09262
set    atom 197  vx -329.379691485 vy -160.686397353 vz 1498999.9552
set    atom 198  vx -381722.253787 vy 242937.602124 vz -1429080.27851
set    atom 199  vx -578749.605691 vy 270146.808789 vz 1356123.37035
set    atom 200  vx 1380503.44755 vy -416311.457236 vz -409751.146294
set    atom 201  vx 81082.7068518 vy -450205.969951 vz -1427494.72128
set    atom 202  vx 1420965.81486 vy -471208.420956 vz 76287.4631346
set    atom 203  vx -167335.142375 vy 1276338.82501 vz 768087.985779
set    atom 204  vx -678878.447228 vy -1081026.35497 vz -785816.183181
set    atom 205  vx -947332.811419 vy -852505.82278 vz 789173.850641
set    atom 206  vx -322092.017244 vy 908390.896236 vz -1148078.26914
set    atom 207  vx -981897.675084 vy -666488.851532 vz 915789.58634
set    atom 208  vx -43403.671655 vy 902235.4415 vz -1196281.04114
set    atom 209  vx 1169439.72499 vy -603021.008234 vz 718176.436005
set    atom 210  vx 1495218.3506 vy -89274.6451169 vz 57906.1461678
set    atom 211  vx 1320079.87325 vy -132315.226084 vz -697769.882688
set    atom 212  vx 992777.733689 vy 573759.812579 vz 965501.449486
set    atom 213  vx -116610.385423 vy 1317672.11754 vz 705083.830956
set    atom 214  vx 1306720.16695 vy -646166.362641 vz -349216.891152
set    atom 215  vx 1376341.2635 vy -82523.8924711 vz -588111.837639
set    atom 216  vx 767524.003405 vy -69868.0310256 vz -1285700.72818
set    atom 217  vx 167299.391172 vy -1338245.04457 vz 654302.769678
set    atom 218  vx 143777.008718 vy 1387134.27078 vz -549716.005406
set    atom 219  vx -372197.512072 vy 1197148.75313 vz -821769.356261
set    atom 220  vx -56499.0876133 vy -4416.15504058 vz 1497928.35298
set    atom 221  vx -376181.254608 vy -530070.899283 vz -1350745.53689
set    atom 222  vx -507419.213159 vy 852868.650789 vz -1123450.84744
set    atom 223  vx -1052429.62563 vy -991761.243858 vz 394718.277088
set    atom 224  vx -18643.5231395 vy 213937.862651 vz 1483537.66719
set    atom 225  vx -1291766.20867 vy -310294.468097 vz -694304.259825
set    atom 226  vx -583889.967848 vy -715602.357597 vz -1180672.16925
set    atom 227  vx -501089.368376 vy 1412751.15863 vz 6678.97308794
set    atom 228  vx -1211088.15824 vy -7702.20953226 vz -883293.353836
set    atom 229  vx -402420.390631 vy 1265708.17943 vz 695011.966611
set    atom 230  vx -407220.882203 vy 1353776.98462 vz 498457.650158
set    atom 231  vx -743066.865549 vy 635558.559378 vz -1136185.70266
set    atom 232  vx -282500.228494 vy -1347390.55353 vz -593071.08947
set    atom 233  vx -911776.787452 vy -906555.479564 vz 770597.983605
set    atom 234  vx 571066.981852 vy -1380766.47893 vz -119864.226903
set    atom 235  vx -1104441.05781 vy 1013510.7857 vz 2614.78391485
set    atom 236  vx 1136409.61334 vy -977044.17848 vz -30965.5292894
set    atom 237  vx 666421.577749 vy -48604.2774087 vz 1341834.90226
set    atom 238  vx 219406.819184 vy 196398.107528 vz 1469792.30882
set    atom 239  vx 1122237.10158 vy -289092.742431 vz 950794.548843
set    atom 240  vx 832805.089558 vy -552283.87687 vz -1117326.81081
set    atom 241  vx -375957.358018 vy 280514.961815 vz 1423716.41177
set    atom 242  vx -1102092.96751 vy -311093.182469 vz -967270.966578
set    atom 243  vx 1225771.36405 vy -857512.847741 vz 95693.6729027
set    atom 244  vx -94665.2005902 vy 1482983.33266 vz 196976.99068
set    atom 245  vx 1287393.65285 vy 63362.4997684 vz -765247.526115
set    atom 246  vx 421307.402194 vy -1363736.81238 vz 457955.215499
set    atom 247  vx 90797.6027342 vy 1151110.54104 vz 955877.250305
set    atom 248  vx 638494.002181 vy 1092505.38376 vz 803590.938003
set    atom 249  vx 444536.736327 vy 1217519.03665 vz 753017.586418
set    atom 250  vx 21199.7827973 vy -1409567.44292 vz 509579.427636
set    atom 251  vx -1348586.30016 vy -644497.289461 vz 113750.757814
set    atom 252  vx 1434495.44925 vy -410616.348426 vz 143589.764594
set    atom 253  vx 1228806.88383 vy 427784.73474 vz 744335.181872
set    atom 254  vx -650362.438883 vy 882855.542755 vz 1022054.68969
set    atom 255  vx 1271296.14985 vy -582865.477801 vz 539513.608885
set    atom 256  vx 335364.471347 vy -341847.136936 vz -1420447.88934
set    atom 257  vx -1316815.4551 vy 241929.845872 vz -674142.423299
set    atom 258  vx -335295.668801 vy -555134.002996 vz -1351445.1721
set    atom 259  vx 814504.049447 vy -1005607.42548 vz 756530.144317
set    atom 260  vx -937815.636398 vy -678311.73888 vz -952573.365692
set    atom 261  vx 256496.089463 vy -673107.513208 vz -1314586.25877
set    atom 262  vx -1210599.61463 vy 787410.678161 vz -401788.497814
set    atom 263  vx -1070450.89487 vy -806292.765408 vz -671586.076479
set    atom 264  vx 429762.966551 vy -726494.192077 vz 1238753.80179
set    atom 265  vx -102399.663104 vy 711508.717262 vz 1315397.52708
set    atom 266  vx -874018.488135 vy -765016.181785 vz 947545.737158
set    atom 267  vx 941593.835592 vy -548466.233229 vz -1029362.3462
set    atom 268  vx -68536.2406682 vy 642389.426638 vz 1352641.71467
set    atom 269  vx 1095287.34072 vy 400874.180931 vz 941619.101504
set    atom 270  vx -685660.848842 vy -1316468.7665 vz 209237.155399
set    atom 271  vx -1344291.66368 vy 640270.659064 vz -173015.62388
set    atom 272  vx 43056.7106738 vy -99014.1133451 vz 1495106.45943
set    atom 273  vx -1029272.98318 vy 397364.363984 vz 1014741.19279
set    atom 274  vx 55899.5086629 vy 1359702.44767 vz -628558.269957
set    atom 275  vx -89784.2443714 vy -1236567.84201 vz 842519.887941
set    atom 276  vx -271533.571952 vy 1317869.99814 vz 660673.283326
set    atom 277  vx 256769.854843 vy -1013230.09009 vz -1074446.38125
set    atom 278  vx -413409.507947 vy -918976.363973 vz 1109763.94841
set    atom 279  vx -614879.866314 vy -191588.228975 vz 1353594.36336
set    atom 280  vx 1366983.619 vy -51302.5645074 vz -612963.973063
set    atom 281  vx -154684.749851 vy -1116711.03081 vz 987942.357539
set    atom 282  vx 677993.401067 vy -405401.380414 vz 1273960.62297
set    atom 283  vx 451814.9216 vy 1238023.79803 vz -714255.803014
set    atom 284  vx -117420.458415 vy 962588.100028 vz 1143082.49292
set    atom 285  vx 1394115.30556 vy 197336.050343 vz 514297.577334
set    atom 286  vx 137182.055022 vy 1046550.60389 vz -1064384.29023
set    atom 287  vx -846444.292176 vy -1129622.28982 vz 504466.592142
set    atom 288  vx 1189946.9799 vy -844459.92591 vz 343386.980757
set    atom 289  vx 1127452.45447 vy -111342.775053 vz 981557.308236
set    atom 290  vx 956191.489973 vy 173570.829536 vz -1141302.76511
set    atom 291  vx 304424.203596 vy 202915.368468 vz 1453668.55146
set    atom 292  vx -508416.537928 vy -726965.361561 vz -1208319.07502
set    atom 293  vx 370979.25796 vy 1200293.74594 vz 817722.638563
set    atom 294  vx -69615.3300594 vy 786839.881122 vz 1273984.97138
set    atom 295  vx -1006641.18348 vy -65341.358704 vz 1108785.38707
set    atom 296  vx 1093771.47168 vy -422781.765794 vz 933766.858621
set    atom 297  vx 821481.028836 vy -1252953.29864 vz -47727.8816603
set    atom 298  vx -158475.988629 vy -70206.4238452 vz -1488945.06919
set    atom 299  vx -655465.976172 vy -1347155.49063 vz -50372.9902655
set    atom 300  vx -1455159.6271 vy -81302.2967642 vz -350572.954189
set    atom 301  vx -227867.108628 vy 1256489.86149 vz -785054.653364
set    atom 302  vx -21688.4361569 vy 90496.6182365 vz -1496108.6103
set    atom 303  vx 1058354.03141 vy 1033959.46753 vz -240448.671692
set    atom 304  vx 752842.701788 vy -1173676.0269 vz 550194.011464
set    atom 305  vx -1468761.63897 vy 290656.80668 vz -72518.0572324
set    atom 306  vx -785485.168471 vy 705033.423471 vz 1064397.44546
set    atom 307  vx -665732.945452 vy -1338051.81485 vz 115836.031172
set    atom 308  vx -795377.720296 vy 201420.24828 vz 1254513.91608
set    atom 309  vx 217793.746698 vy -281293.729702 vz 1456173.31439
set    atom 310  vx 1164606.22234 vy -564344.419419 vz 756444.791882
set    atom 311  vx -279001.713525 vy -301720.950875 vz 1441569.80811
set    atom 312  vx -1288369.47424 vy -748324.976985 vz 164665.802973
set    atom 313  vx 403625.378064 vy -1220156.82956 vz 771560.020641
set    atom 314  vx 982142.086526 vy -302279.749703 vz 1091340.86096
set    atom 315  vx 527403.143689 vy 1034788.00705 vz 947660.648387
set    atom 316  vx 1400029.31574 vy -300302.011647 vz 443551.143461
set    atom 317  vx -606815.214201 vy 515403.438186 vz -1270092.74926
set    atom 318  vx -303147.966262 vy 577448.642906 vz 1349687.13981
set    atom 319  vx -964931.882107 vy 446822.502168 vz 1056530.69735
set    atom 320  vx -448829.876165 vy -643420.900163 vz -1277326.22595
set    atom 321  vx -23099.1797421 vy -32444.8233088 vz 1498470.80764
set    atom 322  vx -12411.9755181 vy -112701.822197 vz -1494705.73764
set    atom 323  vx -177647.299515 vy -649429.717375 vz -1339284.68936
set    atom 324  vx -266368.333326 vy 146514.566876 vz 1467849.58109
set    atom 325  vx 183963.636203 vy 340957.461385 vz -1448069.88439
set    atom 326  vx -575124.15591 vy 1002548.69763 vz 954530.939347
set    atom 327  vx 47314.6278188 vy -772065.546556 vz 1284008.22342
set    atom 328  vx 307049.261422 vy -497951.017172 vz -1380132.79635
set    atom 329  vx 133326.885686 vy -836909.975458 vz 1236449.20419
set    atom 330  vx -406119.881538 vy 50014.4862613 vz -1442070.10682
set    atom 331  vx 703876.058821 vy 352585.118905 vz -1275634.44127
set    atom 332  vx -823293.716815 vy -914590.094947 vz 855986.807187
set    atom 333  vx 1444234.14101 vy 110195.821412 vz -386064.278178
set    atom 334  vx -117133.438592 vy 166842.586515 vz 1485073.83954
set    atom 335  vx 680031.165343 vy -588458.205826 vz 1199281.26566
set    atom 336  vx 793590.68949 vy -1002069.39551 vz -782988.980852
set    atom 337  vx 1246813.20833 vy -187450.680332 vz -810752.777342
set    atom 338  vx -271306.35765 vy -728378.281898 vz 1281740.58949
set    atom 339  vx -1266828.97866 vy 134241.567576 vz -790015.531717
set    atom 340  vx 1275857.91648 vy -44789.1340463 vz -785609.006081
set    atom 341  vx 961189.392324 vy 209248.815426 vz -1131075.10154
set    atom 342  vx -624720.922122 vy 22015.4411824 vz -1362439.02242
set    atom 343  vx -603485.675435 vy 940328.493124 vz -999293.933016
set    atom 344  vx 227617.461667 vy 46716.2904849 vz -1480881.11587
set    atom 345  vx 93880.3362863 vy -1431390.23811 vz 435097.079616
set    atom 346  vx -834143.297574 vy 499879.960024 vz -1140756.75965
set    atom 347  vx -351306.773369 vy -51823.3117758 vz -1456330.62707
set    atom 348  vx 348278.232853 vy -117051.32624 vz 1453272.94737
set    atom 349  vx 1216641.39094 vy -873839.991346 vz -56465.8779003
set    atom 350  vx 1071961.71425 vy 1041704.73469 vz -112917.354364
set    atom 351  vx 87430.2937622 vy 50845.5010979 vz -1495584.05941
set    atom 352  vx -132627.55757 vy 125869.280787 vz -1487806.39034
set    atom 353  vx -976780.074547 vy 823967.915392 vz 783567.840312
set    atom 354  vx -1434043.09409 vy 371527.308069 vz 229104.481932
set    atom 355  vx -114954.256196 vy -498285.684608 vz 1409076.96578
set    atom 356  vx -1419584.72144 vy 474644.811367 vz 80576.1856871
set    atom 357  vx -632317.135751 vy 68001.924659 vz -1357406.26862
set    atom 358  vx -443926.089731 vy -947860.70873 vz 1073075.34857
set    atom 359  vx 143687.052009 vy -187686.670694 vz -1480246.17707
set    atom 360  vx -502935.466654 vy 320099.642999 vz 1375352.00401
set    atom 361  vx 1348426.28664 vy -511104.240954 vz -409292.077104
set    atom 362  vx -1445290.4459 vy -288688.916164 vz 273487.178254
set    atom 363  vx -281728.067382 vy -466023.893899 vz -1396585.8464
set    atom 364  vx -603506.752417 vy -1333263.45753 vz 324328.772408
set    atom 365  vx -123063.834011 vy -1105989.12554 vz -1004312.87303
set    atom 366  vx 70701.1709228 vy 1493110.37541 vz 112355.468434
set    atom 367  vx -312079.145991 vy 1276244.93163 vz 721669.2325
set    atom 368  vx 218562.610357 vy -792882.218813 vz 1253223.51256
set    atom 369  vx -1125000.93574 vy 698416.915966 vz -702557.973467
set    atom 370  vx -3647.99944704 vy -4409.91381624 vz -1498989.07426
set    atom 371  vx -517983.703085 vy 399807.099445 vz -1348646.79089
set    atom 372  vx -803346.504881 vy -361304.00859 vz -1212886.97185
set    atom 373  vx 470378.19937 vy 918702.163011 vz 1087074.82964
set    atom 374  vx 44665.2841524 vy 12991.2206722 vz -1498278.09187
set    atom 375  vx 7972.7955391 vy 17836.9995607 vz 1498872.66837
set    atom 376  vx 673182.922037 vy -1315269.20685 vz 252769.988288
set    atom 377  vx -183816.715313 vy 854280.076591 vz 1217956.47127
set    atom 378  vx 964392.903677 vy -95385.3299531 vz -1143612.24467
set    atom 379  vx 382087.285162 vy -310350.784795 vz -1415871.70919
set    atom 380  vx 869031.825439 vy -716171.058516 vz -989385.517035
set    atom 381  vx 1410403.15128 vy -345807.452615 vz 371727.261022
set    atom 382  vx 569182.559649 vy -1306097.94146 vz -465983.241237
set    atom 383  vx -498219.974009 vy -73960.8272257 vz 1411845.47792
set    atom 384  vx -479802.389619 vy -593762.465276 vz 1290053.02284
set    atom 385  vx 937978.057693 vy -345798.941989 vz -1116969.67506
set    atom 386  vx 238626.945211 vy 170116.331051 vz 1470074.35694
set    atom 387  vx 14868.7844052 vy 1367862.20532 vz -612970.559247
set    atom 388  vx -1450941.42609 vy -110152.792644 vz -360050.46914
set    atom 389  vx -380867.07667 vy 1263692.183 vz -710649.93952
set    atom 390  vx 1262959.45569 vy -274268.750758 vz 759414.949574
set    atom 391  vx -1018776.57299 vy 884122.222365 vz -653776.101011
set    atom 392  vx 260921.528907 vy 723385.603597 vz -1286714.50768
set    atom 393  vx -98892.8100645 vy -580424.927142 vz -1378523.89028
set    atom 394  vx 591806.884307 vy 1213326.65008 vz 651616.491422
set    atom 395  vx 395780.741107 vy 1323095.87734 vz 582902.997369
set    atom 396  vx -195151.521589 vy -49112.9524304 vz -1485430.8471
set    atom 397  vx 1070826.33206 vy 775286.037644 vz -706585.82381
set    atom 398  vx 36277.2657228 vy 1153215.5215 vz -956963.385385
set    atom 399  vx 358031.550906 vy -953107.745245 vz -1100181.81884
set    atom 400  vx -1358480.61749 vy -371469.850061 vz 513362.992824
set    atom 401  vx -1177109.22639 vy -60770.15086 vz 926132.743132
set    atom 402  vx 1005249.96367 vy 502459.204554 vz -991971.903984
set    atom 403  vx -1450115.84479 vy -236502.15233 vz 297038.328555
set    atom 404  vx 1370830.47536 vy -573068.251971 vz -198538.626976
set    atom 405  vx -508523.11974 vy -669610.931778 vz 1240978.01622
set    atom 406  vx 713404.655491 vy 473380.937597 vz 1230432.96666
set    atom 407  vx -449912.0754 vy -1014615.47834 vz 1007539.35681